 vasp.6.3.2 27Jun22 (build Nov 12 2024 19:13:04) complex

 executed on             LinuxIFC date 2025.02.03  21:57:05

 INCAR:
   SYSTEM = MnBrNCH geometry relaxation
   NCORE = 4
   ISTART = 0
   ICHARG = 2
   ISYM = 0
   GGA = PE
   IVDW = 2
   IALGO = 48
   ISMEAR = 0
   SIGMA = 0.05
   ENCUT = 500
   NELM = 5000
   EDIFF = 1E-06
   EDIFFG = -0.02
   LREAL = Auto
   IBRION = 2
   NSW = 10000

 POTCAR:    PAW_PBE Mn_pv 02Aug2007
 POTCAR:    PAW_PBE Mn_pv 02Aug2007
   VRHFIN =Mn: 3p4s3d

   TITEL  = PAW_PBE Mn_pv 02Aug2007
   POMASS =   54.938; ZVAL   =   13.000    mass and valenz
   ENMAX  =  269.864; ENMIN  =  202.398 eV

 Optimization of the real space projectors (new method)

 maximal supplied QI-value         = 16.25
 optimisation between [QCUT,QGAM] = [ 11.38, 22.75] = [ 36.24,144.96] Ry
 Optimized for a Real-space Cutoff    1.35 Angstroem

   l    n(q)    QCUT    max X(q) W(low)/X(q) W(high)/X(q)  e(spline)
   1      9    11.376     3.658    0.21E-03    0.20E-03    0.75E-07
   1      9    11.376     5.612    0.42E-03    0.37E-03    0.14E-06
   2      8    11.376    55.373    0.42E-03    0.47E-03    0.17E-06
   2      8    11.376    50.863    0.43E-03    0.48E-03    0.17E-06
   0      9    11.376    79.536    0.15E-03    0.13E-03    0.43E-07
   0      9    11.376    38.668    0.14E-03    0.12E-03    0.40E-07
  PAW_PBE Mn_pv 02Aug2007               :

 POSCAR: Mn58
  positions in cartesian coordinates
 exchange correlation table for  LEXCH =        8
   RHO(1)=    0.500       N(1)  =     2000
   RHO(2)=  100.500       N(2)  =     4000

 ion  position               nearest neighbor table
   1  0.000  0.000  0.000-  51 2.67  52 2.67  58 2.67  19 2.67  20 2.67  24 2.67  21 2.67  25 2.67
                            26 2.67  18 2.67  27 2.67  28 2.67  31 2.71   4 2.71   5 2.71   3 2.71
   2  0.319  0.319  0.319-   6 2.48  16 2.48  15 2.48  48 2.61  49 2.61  50 2.61  53 2.61  54 2.61
                            55 2.61  30 2.71  27 2.82  28 2.82  18 2.82  10 2.83  11 2.83  17 2.83
   3  0.181  0.181  0.819-   7 2.48  13 2.48  10 2.48  21 2.61  26 2.61  52 2.61  58 2.61  18 2.61
                            28 2.61   1 2.71  22 2.82  54 2.82  48 2.82  37 2.83  41 2.83  15 2.83
   4  0.819  0.181  0.181-   8 2.48  14 2.48  11 2.48  24 2.61  25 2.61  51 2.61  58 2.61  18 2.61
                            27 2.61   1 2.71  23 2.82  55 2.82  49 2.82  36 2.83  38 2.83  16 2.83
   5  0.181  0.819  0.181-   9 2.48  12 2.48  17 2.48  19 2.61  20 2.61  51 2.61  52 2.61  27 2.61
                            28 2.61   1 2.71  29 2.82  50 2.82  53 2.82  43 2.83  42 2.83   6 2.83
   6  0.356  0.035  0.356-  29 2.28  27 2.43  28 2.43   2 2.48  36 2.55  37 2.55  11 2.57  10 2.57
                            12 2.57   9 2.57  48 2.59  49 2.59   5 2.83
   7  0.144  0.465  0.856-  20 2.28  22 2.43  54 2.43   3 2.48  35 2.55  17 2.55  41 2.57  40 2.57
                            15 2.57  43 2.57  58 2.59  18 2.59  33 2.83
   8  0.856  0.465  0.144-  19 2.28  23 2.43  55 2.43   4 2.48  35 2.55  17 2.55  38 2.57  39 2.57
                            16 2.57  42 2.57  58 2.59  18 2.59  32 2.83
   9  0.144  0.856  0.465-  26 2.28  29 2.43  53 2.43   5 2.48  44 2.55  10 2.55  42 2.57  40 2.57
                             6 2.57  37 2.57  51 2.59  27 2.59  33 2.83
  10  0.144  0.144  0.535-  27 2.28  48 2.43  54 2.43   3 2.48  14 2.55   9 2.55  16 2.57   6 2.57
                            37 2.57  41 2.57  26 2.59  21 2.59   2 2.83
  11  0.535  0.144  0.144-  28 2.28  55 2.43  49 2.43   4 2.48  13 2.55  12 2.55  15 2.57   6 2.57
                            36 2.57  38 2.57  25 2.59  24 2.59   2 2.83
  12  0.465  0.856  0.144-  25 2.28  29 2.43  50 2.43   5 2.48  45 2.55  11 2.55  43 2.57  39 2.57
                             6 2.57  36 2.57  52 2.59  28 2.59  32 2.83
  13  0.465  0.144  0.856-  24 2.28  22 2.43  48 2.43   3 2.48  45 2.55  11 2.55  37 2.57  46 2.57
                            15 2.57  38 2.57  52 2.59  28 2.59  34 2.83
  14  0.856  0.144  0.465-  21 2.28  23 2.43  49 2.43   4 2.48  44 2.55  10 2.55  36 2.57  46 2.57
                            16 2.57  41 2.57  51 2.59  27 2.59  34 2.83
  15  0.356  0.356  0.035-  22 2.28  28 2.43  18 2.43   2 2.48  38 2.55  43 2.55  17 2.57  11 2.57
                             7 2.57  13 2.57  50 2.59  55 2.59   3 2.83
  16  0.035  0.356  0.356-  23 2.28  27 2.43  18 2.43   2 2.48  41 2.55  42 2.55  17 2.57  10 2.57
                             8 2.57  14 2.57  53 2.59  54 2.59   4 2.83
  17  0.144  0.535  0.144-  18 2.28  50 2.43  53 2.43   5 2.48   8 2.55   7 2.55  16 2.57  15 2.57
                            42 2.57  43 2.57  19 2.59  20 2.59   2 2.83
  18  0.089  0.283  0.089-  58 2.17  17 2.28  28 2.36  27 2.36  15 2.43  16 2.43   7 2.59   8 2.59
                             3 2.61   4 2.61   1 2.67   2 2.82
  19  0.911  0.717  0.089-  20 2.17   8 2.28  51 2.36  25 2.36  42 2.43  39 2.43  17 2.59  35 2.59
                             5 2.61  31 2.61   1 2.67  32 2.82
  20  0.089  0.717  0.911-  19 2.17   7 2.28  52 2.36  26 2.36  43 2.43  40 2.43  17 2.59  35 2.59
                             5 2.61  31 2.61   1 2.67  33 2.82
  21  0.911  0.089  0.717-  26 2.17  14 2.28  58 2.36  24 2.36  41 2.43  46 2.43  10 2.59  44 2.59
                             3 2.61  31 2.61   1 2.67  34 2.82
  22  0.411  0.411  0.783-  56 2.17  15 2.28  54 2.36  48 2.36   7 2.43  13 2.43  43 2.59  38 2.59
                            34 2.61  33 2.61  30 2.67   3 2.82
  23  0.783  0.411  0.411-  57 2.17  16 2.28  55 2.36  49 2.36   8 2.43  14 2.43  42 2.59  41 2.59
                            34 2.61  32 2.61  30 2.67   4 2.82
  24  0.717  0.089  0.911-  25 2.17  13 2.28  58 2.36  21 2.36  38 2.43  46 2.43  11 2.59  45 2.59
                             4 2.61  31 2.61   1 2.67  34 2.82
  25  0.717  0.911  0.089-  24 2.17  12 2.28  51 2.36  19 2.36  36 2.43  39 2.43  11 2.59  45 2.59
                             4 2.61  31 2.61   1 2.67  32 2.82
  26  0.089  0.911  0.717-  21 2.17   9 2.28  52 2.36  20 2.36  37 2.43  40 2.43  10 2.59  44 2.59
                             3 2.61  31 2.61   1 2.67  33 2.82
  27  0.089  0.089  0.283-  51 2.17  10 2.28  28 2.36  18 2.36  16 2.43   6 2.43   9 2.59  14 2.59
                             4 2.61   5 2.61   1 2.67   2 2.82
  28  0.283  0.089  0.089-  52 2.17  11 2.28  27 2.36  18 2.36  15 2.43   6 2.43  12 2.59  13 2.59
                             3 2.61   5 2.61   1 2.67   2 2.82
  29  0.411  0.783  0.411-  47 2.17   6 2.28  50 2.36  53 2.36  12 2.43   9 2.43  37 2.59  36 2.59
                            33 2.61  32 2.61  30 2.67   5 2.82
  30  0.500  0.500  0.500-  47 2.67  56 2.67  57 2.67  50 2.67  53 2.67  54 2.67  55 2.67  48 2.67
                            49 2.67  22 2.67  23 2.67  29 2.67   2 2.71  32 2.71  33 2.71  34 2.71
  31  0.819  0.819  0.819-  35 2.48  44 2.48  45 2.48  24 2.61  25 2.61  26 2.61  19 2.61  20 2.61
                            21 2.61   1 2.71  47 2.82  56 2.82  57 2.82  39 2.83  40 2.83  46 2.83
  32  0.681  0.681  0.319-  39 2.48  36 2.48  42 2.48  47 2.61  57 2.61  29 2.61  23 2.61  55 2.61
                            50 2.61  30 2.71  25 2.82  19 2.82  51 2.82  44 2.83   8 2.83  12 2.83
  33  0.319  0.681  0.681-  40 2.48  37 2.48  43 2.48  47 2.61  56 2.61  29 2.61  22 2.61  54 2.61
                            53 2.61  30 2.71  26 2.82  20 2.82  52 2.82  45 2.83   7 2.83   9 2.83
  34  0.681  0.319  0.681-  46 2.48  41 2.48  38 2.48  56 2.61  57 2.61  23 2.61  22 2.61  48 2.61
                            49 2.61  30 2.71  21 2.82  24 2.82  58 2.82  35 2.83  13 2.83  14 2.83
  35  0.856  0.535  0.856-  58 2.28  57 2.43  56 2.43  31 2.48   7 2.55   8 2.55  41 2.57  38 2.57
                            40 2.57  39 2.57  19 2.59  20 2.59  34 2.83
  36  0.644  0.965  0.356-  49 2.28  25 2.43  51 2.43  32 2.48   6 2.55  46 2.55  14 2.57  44 2.57
                            11 2.57  12 2.57  47 2.59  29 2.59   4 2.83
  37  0.356  0.965  0.644-  48 2.28  26 2.43  52 2.43  33 2.48   6 2.55  46 2.55  13 2.57  45 2.57
                            10 2.57   9 2.57  47 2.59  29 2.59   3 2.83
  38  0.644  0.356  0.965-  55 2.28  24 2.43  58 2.43  34 2.48  15 2.55  39 2.55   8 2.57  35 2.57
                            11 2.57  13 2.57  56 2.59  22 2.59   4 2.83
  39  0.644  0.644  0.035-  56 2.28  25 2.43  19 2.43  32 2.48  43 2.55  38 2.55  12 2.57   8 2.57
                            45 2.57  35 2.57  55 2.59  50 2.59  31 2.83
  40  0.035  0.644  0.644-  57 2.28  26 2.43  20 2.43  33 2.48  42 2.55  41 2.55   7 2.57   9 2.57
                            44 2.57  35 2.57  54 2.59  53 2.59  31 2.83
  41  0.965  0.356  0.644-  54 2.28  21 2.43  58 2.43  34 2.48  16 2.55  40 2.55   7 2.57  35 2.57
                            10 2.57  14 2.57  57 2.59  23 2.59   3 2.83
  42  0.965  0.644  0.356-  53 2.28  19 2.43  51 2.43  32 2.48  16 2.55  40 2.55   9 2.57  44 2.57
                            17 2.57   8 2.57  57 2.59  23 2.59   5 2.83
  43  0.356  0.644  0.965-  50 2.28  20 2.43  52 2.43  33 2.48  15 2.55  39 2.55  12 2.57  45 2.57
                            17 2.57   7 2.57  56 2.59  22 2.59   5 2.83
  44  0.856  0.856  0.535-  51 2.28  47 2.43  57 2.43  31 2.48   9 2.55  14 2.55  42 2.57  36 2.57
                            46 2.57  40 2.57  26 2.59  21 2.59  32 2.83
  45  0.535  0.856  0.856-  52 2.28  47 2.43  56 2.43  31 2.48  12 2.55  13 2.55  43 2.57  37 2.57
                            46 2.57  39 2.57  24 2.59  25 2.59  33 2.83
  46  0.644  0.035  0.644-  47 2.28  24 2.43  21 2.43  34 2.48  37 2.55  36 2.55  13 2.57  14 2.57
                            45 2.57  44 2.57  48 2.59  49 2.59  31 2.83
  47  0.589  0.783  0.589-  29 2.17  46 2.28  56 2.36  57 2.36  45 2.43  44 2.43  36 2.59  37 2.59
                            33 2.61  32 2.61  30 2.67  31 2.82
  48  0.411  0.217  0.589-  49 2.17  37 2.28  54 2.36  22 2.36  13 2.43  10 2.43   6 2.59  46 2.59
                             2 2.61  34 2.61  30 2.67   3 2.82
  49  0.589  0.217  0.411-  48 2.17  36 2.28  55 2.36  23 2.36  14 2.43  11 2.43   6 2.59  46 2.59
                             2 2.61  34 2.61  30 2.67   4 2.82
  50  0.411  0.589  0.217-  55 2.17  43 2.28  53 2.36  29 2.36  12 2.43  17 2.43  15 2.59  39 2.59
                             2 2.61  32 2.61  30 2.67   5 2.82
  51  0.911  0.911  0.283-  27 2.17  44 2.28  19 2.36  25 2.36  42 2.43  36 2.43   9 2.59  14 2.59
                             4 2.61   5 2.61   1 2.67  32 2.82
  52  0.283  0.911  0.911-  28 2.17  45 2.28  20 2.36  26 2.36  43 2.43  37 2.43  12 2.59  13 2.59
                             3 2.61   5 2.61   1 2.67  33 2.82
  53  0.217  0.589  0.411-  54 2.17  42 2.28  50 2.36  29 2.36   9 2.43  17 2.43  16 2.59  40 2.59
                             2 2.61  33 2.61  30 2.67   5 2.82
  54  0.217  0.411  0.589-  53 2.17  41 2.28  48 2.36  22 2.36   7 2.43  10 2.43  16 2.59  40 2.59
                             2 2.61  33 2.61  30 2.67   3 2.82
  55  0.589  0.411  0.217-  50 2.17  38 2.28  49 2.36  23 2.36   8 2.43  11 2.43  15 2.59  39 2.59
                             2 2.61  32 2.61  30 2.67   4 2.82
[...]
   Mn        675.395          4.104         69.686          1.10613483
   Mn        676.222          4.105         69.729          1.10681206
   Mn        676.222          4.105         69.729          1.10681176
   Mn        676.223          4.105         69.729          1.10681225
   Mn        676.222          4.105         69.729          1.10681176
   Mn        676.223          4.105         69.729          1.10681292
   Mn        676.224          4.105         69.729          1.10681322
   Mn        676.222          4.105         69.729          1.10681216
   Mn        676.222          4.105         69.729          1.10681197
   Mn        676.222          4.105         69.729          1.10681199
   Mn        676.223          4.105         69.729          1.10681243
   Mn        676.223          4.105         69.729          1.10681221
   Mn        676.223          4.105         69.729          1.10681285
   Mn        677.779          4.107         69.809          1.10808509
   Mn        677.780          4.107         69.809          1.10808577
   Mn        677.779          4.107         69.809          1.10808533
   Mn        677.780          4.107         69.809          1.10808574
   Mn        677.779          4.107         69.809          1.10808536
   Mn        677.780          4.107         69.809          1.10808570
   Mn        677.779          4.107         69.809          1.10808543
   Mn        677.780          4.107         69.809          1.10808585
   Mn        677.780          4.107         69.809          1.10808571
   Mn        677.778          4.107         69.809          1.10808466
   Mn        677.779          4.107         69.809          1.10808507
   Mn        677.779          4.107         69.809          1.10808541

  Number of pair interactions contributing to vdW energy: 1399228
  Edisp (eV):  -72.92500

  FORCE on cell =-STRESS in cart. coord.  units (eV):
  Direction    XX          YY          ZZ          XY          YZ          ZX
  Alpha Z  6336.68346  6336.68346  6336.68346
  Ewald  -30414.19261-30414.17260-30414.18231    -0.00790     0.01371     0.00289
  Hartree  7947.37312  7947.38294  7947.37836    -0.00655     0.01005     0.00202
  E(xc)   -4473.37592 -4473.37589 -4473.37590    -0.00002     0.00000    -0.00000
  Local    8753.03941  8753.01178  8753.02557     0.01635    -0.02524    -0.00486
  n-local -2048.77444 -2048.77447 -2048.77473     0.00018     0.00008     0.00015
  augment  5724.07655  5724.07633  5724.07655    -0.00122     0.00039    -0.00029
  Kinetic  8156.83974  8156.83886  8156.83913    -0.00096     0.00020    -0.00045
  Fock        0.00000     0.00000     0.00000     0.00000     0.00000     0.00000
  vdW       -64.68290   -64.68284   -64.68289    -0.00007     0.00000    -0.00006
  Total     -83.01358   -83.01242   -83.01275    -0.00020    -0.00079    -0.00061
  in kB    -207.76147  -207.75856  -207.75938    -0.00050    -0.00199    -0.00152

 VOLUME and BASIS-vectors are now :
  energy-cutoff  :      500.00
  volume of cell :      640.17
      direct lattice vectors                 reciprocal lattice vectors
     8.618497849  0.000000000  0.000000000     0.116029500  0.000000000  0.000000000
     0.000000000  8.618497849  0.000000000     0.000000000  0.116029500  0.000000000
     0.000000000  0.000000000  8.618497849     0.000000000  0.000000000  0.116029500

  length of vectors
     8.618497849  8.618497849  8.618497849     0.116029500  0.116029500  0.116029500

 FORCES acting on ions
    electron-ion (+dipol)            ewald-force                    non-local-force                 convergence-correction
   -.447E-01 -.628E-01 -.158E-01   0.462E-01 0.638E-01 0.168E-01   0.229E-03 0.464E-03 0.203E-03   -.166E-02 -.129E-02 -.125E-02
   0.304E+02 0.304E+02 0.304E+02   -.294E+02 -.294E+02 -.294E+02   -.885E+00 -.884E+00 -.884E+00   -.322E-02 -.320E-02 -.268E-02
   -.304E+02 -.304E+02 0.304E+02   0.294E+02 0.294E+02 -.294E+02   0.884E+00 0.884E+00 -.885E+00   0.285E-02 0.287E-02 -.610E-02
   0.304E+02 -.304E+02 -.304E+02   -.294E+02 0.294E+02 0.294E+02   -.885E+00 0.885E+00 0.884E+00   -.557E-02 0.206E-02 0.292E-02
   -.304E+02 0.304E+02 -.304E+02   0.294E+02 -.294E+02 0.294E+02   0.884E+00 -.885E+00 0.884E+00   0.240E-02 -.608E-02 0.325E-02
   0.124E+02 -.412E+02 0.124E+02   -.130E+02 0.420E+02 -.130E+02   0.529E+00 -.853E+00 0.528E+00   0.716E-03 0.139E-02 0.155E-02
   -.124E+02 0.412E+02 0.124E+02   0.130E+02 -.420E+02 -.130E+02   -.528E+00 0.853E+00 0.528E+00   0.526E-03 0.222E-02 0.181E-03
   0.124E+02 0.412E+02 -.124E+02   -.130E+02 -.420E+02 0.130E+02   0.528E+00 0.853E+00 -.528E+00   0.146E-02 -.196E-04 -.102E-02
   -.124E+02 0.123E+02 0.412E+02   0.130E+02 -.130E+02 -.420E+02   -.529E+00 0.528E+00 0.853E+00   0.873E-03 0.166E-03 0.458E-03
   -.124E+02 -.125E+02 -.411E+02   0.131E+02 0.131E+02 0.419E+02   -.528E+00 -.529E+00 -.853E+00   -.610E-03 0.182E-03 0.511E-03
   -.411E+02 -.125E+02 -.124E+02   0.419E+02 0.131E+02 0.131E+02   -.853E+00 -.529E+00 -.529E+00   0.197E-02 0.809E-03 0.300E-03
   0.411E+02 0.124E+02 -.124E+02   -.420E+02 -.130E+02 0.130E+02   0.853E+00 0.528E+00 -.529E+00   -.329E-03 0.141E-02 -.112E-02
   0.411E+02 -.124E+02 0.124E+02   -.420E+02 0.131E+02 -.130E+02   0.853E+00 -.529E+00 0.529E+00   0.198E-02 -.339E-03 0.979E-03
   0.124E+02 -.124E+02 0.411E+02   -.130E+02 0.131E+02 -.420E+02   0.528E+00 -.528E+00 0.853E+00   0.902E-03 0.475E-04 0.526E-03
   0.124E+02 0.124E+02 -.411E+02   -.130E+02 -.131E+02 0.420E+02   0.529E+00 0.528E+00 -.853E+00   0.173E-02 0.190E-02 0.648E-03
   -.412E+02 0.124E+02 0.124E+02   0.420E+02 -.131E+02 -.130E+02   -.853E+00 0.529E+00 0.529E+00   0.155E-02 0.911E-03 0.180E-02
   -.125E+02 -.411E+02 -.124E+02   0.131E+02 0.419E+02 0.131E+02   -.529E+00 -.853E+00 -.529E+00   0.529E-03 0.235E-02 0.349E-03
   -.314E+02 0.351E+02 -.313E+02   0.323E+02 -.357E+02 0.322E+02   -.884E+00 0.743E+00 -.884E+00   0.802E-03 0.503E-02 0.131E-02
   0.313E+02 -.350E+02 -.313E+02   -.322E+02 0.357E+02 0.322E+02   0.884E+00 -.743E+00 -.884E+00   0.132E-02 -.229E-02 0.140E-02
   -.313E+02 -.351E+02 0.313E+02   0.322E+02 0.357E+02 -.322E+02   -.884E+00 -.743E+00 0.884E+00   0.377E-02 -.300E-02 -.787E-03
   0.313E+02 -.314E+02 -.350E+02   -.322E+02 0.323E+02 0.357E+02   0.884E+00 -.884E+00 -.743E+00   -.855E-03 0.283E-02 -.249E-02
   0.313E+02 0.314E+02 0.350E+02   -.322E+02 -.323E+02 -.357E+02   0.884E+00 0.884E+00 0.743E+00   0.380E-03 0.256E-02 0.216E-02
   0.351E+02 0.314E+02 0.313E+02   -.357E+02 -.323E+02 -.322E+02   0.743E+00 0.884E+00 0.884E+00   0.299E-02 -.184E-02 0.935E-03
   -.350E+02 -.314E+02 0.313E+02   0.357E+02 0.323E+02 -.322E+02   -.743E+00 -.884E+00 0.884E+00   -.244E-02 0.231E-02 -.318E-03
   -.350E+02 0.312E+02 -.313E+02   0.357E+02 -.321E+02 0.323E+02   -.743E+00 0.884E+00 -.884E+00   -.181E-02 0.169E-02 0.415E-03
   -.313E+02 0.312E+02 -.351E+02   0.323E+02 -.321E+02 0.358E+02   -.884E+00 0.884E+00 -.743E+00   0.316E-02 -.933E-03 -.236E-02
   -.313E+02 -.314E+02 0.350E+02   0.323E+02 0.323E+02 -.357E+02   -.884E+00 -.884E+00 0.743E+00   0.881E-03 0.929E-03 0.587E-02
   0.350E+02 -.314E+02 -.313E+02   -.357E+02 0.323E+02 0.322E+02   0.743E+00 -.884E+00 -.884E+00   0.496E-02 0.103E-02 0.191E-02
   0.313E+02 0.351E+02 0.314E+02   -.322E+02 -.357E+02 -.323E+02   0.884E+00 0.743E+00 0.884E+00   -.223E-02 0.238E-02 0.246E-02
   0.295E-01 0.877E-01 0.526E-01   -.286E-01 -.884E-01 -.554E-01   -.209E-03 -.430E-03 -.358E-03   -.720E-03 0.858E-03 0.289E-02
   0.304E+02 0.304E+02 0.304E+02   -.294E+02 -.294E+02 -.294E+02   -.885E+00 -.885E+00 -.885E+00   -.362E-02 -.276E-02 -.278E-02
   -.304E+02 -.304E+02 0.304E+02   0.294E+02 0.294E+02 -.294E+02   0.885E+00 0.885E+00 -.884E+00   0.423E-02 0.427E-02 -.172E-02
   0.304E+02 -.304E+02 -.304E+02   -.294E+02 0.294E+02 0.294E+02   -.884E+00 0.884E+00 0.884E+00   -.180E-02 0.447E-02 0.527E-02
   -.304E+02 0.304E+02 -.304E+02   0.294E+02 -.294E+02 0.294E+02   0.885E+00 -.885E+00 0.885E+00   0.376E-02 -.161E-02 0.470E-02
   0.124E+02 -.411E+02 0.124E+02   -.130E+02 0.419E+02 -.130E+02   0.529E+00 -.853E+00 0.529E+00   -.122E-02 -.132E-02 -.848E-03
   -.124E+02 0.410E+02 0.124E+02   0.130E+02 -.418E+02 -.130E+02   -.529E+00 0.853E+00 0.529E+00   0.753E-04 0.168E-02 -.203E-03
   0.124E+02 0.410E+02 -.124E+02   -.131E+02 -.418E+02 0.130E+02   0.528E+00 0.853E+00 -.528E+00   -.793E-03 -.300E-02 0.150E-03
   -.124E+02 0.124E+02 0.411E+02   0.130E+02 -.131E+02 -.419E+02   -.529E+00 0.529E+00 0.853E+00   0.287E-03 -.127E-02 -.162E-02
   -.124E+02 -.123E+02 -.411E+02   0.130E+02 0.130E+02 0.419E+02   -.529E+00 -.529E+00 -.853E+00   -.102E-02 -.113E-02 -.362E-02
   -.411E+02 -.124E+02 -.124E+02   0.419E+02 0.130E+02 0.130E+02   -.853E+00 -.528E+00 -.528E+00   0.240E-02 -.753E-03 -.794E-04
   0.411E+02 0.124E+02 -.124E+02   -.419E+02 -.131E+02 0.130E+02   0.853E+00 0.529E+00 -.529E+00   -.584E-03 -.146E-02 0.235E-03
   0.411E+02 -.124E+02 0.124E+02   -.419E+02 0.130E+02 -.130E+02   0.853E+00 -.529E+00 0.529E+00   0.212E-02 -.342E-04 -.104E-02
   0.124E+02 -.124E+02 0.410E+02   -.130E+02 0.130E+02 -.419E+02   0.529E+00 -.528E+00 0.853E+00   -.137E-02 0.671E-04 -.365E-02
   0.124E+02 0.124E+02 -.411E+02   -.130E+02 -.130E+02 0.419E+02   0.529E+00 0.529E+00 -.853E+00   -.337E-03 0.583E-03 -.671E-03
   -.411E+02 0.124E+02 0.124E+02   0.419E+02 -.130E+02 -.130E+02   -.853E+00 0.529E+00 0.529E+00   -.114E-02 -.215E-02 -.225E-02
   -.124E+02 -.412E+02 -.124E+02   0.130E+02 0.420E+02 0.130E+02   -.529E+00 -.853E+00 -.529E+00   -.251E-03 -.232E-03 0.582E-05
   -.313E+02 0.351E+02 -.313E+02   0.322E+02 -.357E+02 0.322E+02   -.884E+00 0.743E+00 -.884E+00   -.110E-02 0.102E-02 0.371E-02
   0.314E+02 -.351E+02 -.313E+02   -.323E+02 0.358E+02 0.322E+02   0.884E+00 -.743E+00 -.884E+00   -.227E-02 -.284E-02 0.315E-03
   -.313E+02 -.351E+02 0.314E+02   0.322E+02 0.358E+02 -.323E+02   -.884E+00 -.743E+00 0.884E+00   0.115E-02 -.373E-02 -.275E-02
   0.314E+02 -.312E+02 -.351E+02   -.323E+02 0.321E+02 0.358E+02   0.884E+00 -.884E+00 -.743E+00   -.482E-02 0.335E-04 -.356E-02
   0.313E+02 0.313E+02 0.350E+02   -.322E+02 -.322E+02 -.357E+02   0.884E+00 0.884E+00 0.743E+00   -.162E-02 -.158E-02 0.276E-02
   0.351E+02 0.312E+02 0.313E+02   -.358E+02 -.321E+02 -.322E+02   0.743E+00 0.884E+00 0.884E+00   0.288E-02 -.497E-02 -.415E-02
   -.351E+02 -.312E+02 0.314E+02   0.358E+02 0.321E+02 -.323E+02   -.743E+00 -.884E+00 0.884E+00   -.316E-02 0.123E-02 -.141E-02
   -.351E+02 0.314E+02 -.312E+02   0.358E+02 -.323E+02 0.322E+02   -.743E+00 0.884E+00 -.884E+00   -.284E-02 -.690E-03 0.726E-03
   -.312E+02 0.314E+02 -.351E+02   0.322E+02 -.323E+02 0.357E+02   -.884E+00 0.884E+00 -.743E+00   0.194E-03 -.454E-02 -.382E-02
   -.313E+02 -.312E+02 0.351E+02   0.322E+02 0.322E+02 -.357E+02   -.884E+00 -.884E+00 0.743E+00   -.579E-03 0.170E-02 0.125E-02
   0.351E+02 -.313E+02 -.313E+02   -.357E+02 0.322E+02 0.322E+02   0.743E+00 -.884E+00 -.884E+00   0.472E-03 0.903E-04 0.283E-02
   0.313E+02 0.351E+02 0.313E+02   -.322E+02 -.357E+02 -.322E+02   0.884E+00 0.743E+00 0.884E+00   -.399E-02 0.260E-02 -.360E-02
   -.935E-03 -.439E-03 0.740E-03   -.284E-12 0.313E-12 -.796E-12   -.491E-03 -.211E-03 0.405E-03   0.136E-02 0.611E-03 -.110E-02

 POSITION                                       TOTAL-FORCE (eV/Angst)
     -0.00002     -0.00002     -0.00000         0.000168      0.000247      0.000039
      2.78059      2.78058      2.78057        -0.002101     -0.002115     -0.002052
      1.52864      1.52867      7.08986         0.002164      0.002128     -0.002084
      7.08984      1.52867      1.52867        -0.002102      0.002201      0.002105
      1.52865      7.08986      1.52865         0.002188     -0.002051      0.002101
      3.08565      0.29914      3.08566        -0.005450     -0.009894     -0.005533
      1.22360      4.01011      7.39487         0.005346      0.009955     -0.005214
      7.39489      4.01010      1.22360        -0.005425      0.010082      0.005456
      1.22361      7.39487      4.01010         0.005281     -0.005150      0.010088
      1.22358      1.22358      4.60843         0.005784      0.005696     -0.010454
      4.60845      1.22357      1.22358        -0.010536      0.005741      0.005620
      4.01009      7.39489      1.22360         0.010158     -0.005337      0.005443
      4.01009      1.22359      7.39489         0.010110      0.005549     -0.005385
      7.39489      1.22359      4.01010        -0.005394      0.005527      0.010124
      3.08566      3.08567      0.29916        -0.005516     -0.005696     -0.010119
      0.29916      3.08567      3.08566        -0.010137     -0.005612     -0.005521
      1.22357      4.60844      1.22358         0.005769     -0.010559      0.005654
      0.76335      2.44110      0.76336         0.001046     -0.008980      0.000983
      7.85511      6.17741      0.76336        -0.000734      0.008753      0.001076
      0.76336      6.17740      7.85512         0.001075      0.009032     -0.000810
      7.85512      0.76335      6.17741        -0.000624      0.001173      0.008891
      3.54589      3.54591      6.75034        -0.000980     -0.001530     -0.008862
      6.75034      3.54590      3.54588        -0.008916     -0.001089     -0.000953
      6.17741      0.76334      7.85511         0.008835      0.001361     -0.000683
      6.17741      7.85510      0.76336         0.008820     -0.000571      0.001246
      0.76336      7.85510      6.17739         0.001163     -0.000600      0.009127
      0.76335      0.76334      2.44109         0.000999      0.001196     -0.008835
      2.44109      0.76334      0.76336        -0.008806      0.001184      0.000874
      3.54589      6.75035      3.54591        -0.001032     -0.009023     -0.001429
      4.30926      4.30928      4.30927        -0.000032     -0.000343     -0.000290
      7.08985      7.08987      7.08985        -0.002140     -0.002253     -0.002234
      5.83790      5.83789      2.78060         0.002097      0.002091     -0.002082
      2.78060      5.83789      5.83789        -0.002126      0.001983      0.002014
      5.83790      2.78058      5.83790         0.002128     -0.002160      0.002141
      7.39490      4.60844      7.39490        -0.005388     -0.010425     -0.005471
      5.53285      8.31929      3.08565         0.005337      0.010722     -0.005463
      3.08567      8.31928      5.53285        -0.005555      0.011077      0.005401
      5.53286      3.08566      8.31931         0.005299     -0.005502      0.010532
      5.53287      5.53288      0.29916         0.005135      0.005004     -0.010298
      0.29918      5.53287      5.53286        -0.010651      0.005166      0.005187
      8.31930      3.08567      5.53285         0.010503     -0.005518      0.005314
      8.31931      5.53287      3.08565         0.010493      0.005154     -0.005334
      3.08565      5.53287      8.31929        -0.005399      0.005203      0.010870
      7.39489      7.39489      4.60843        -0.005300     -0.005379     -0.010364
      4.60843      7.39488      7.39489        -0.010332     -0.005079     -0.005144
      5.53286      0.29915      5.53287         0.005215     -0.010057      0.005138
      5.07261      6.75036      5.07263         0.001343     -0.009062      0.000909
      3.54590      1.86813      5.07264        -0.001275      0.008971      0.000785
      5.07263      1.86814      3.54590         0.000681      0.008898     -0.001201
      3.54590      5.07265      1.86813        -0.001308      0.000667      0.009079
      7.85512      7.85510      2.44110        -0.000983     -0.000695     -0.008788
      2.44112      7.85510      7.85511        -0.009105     -0.000595     -0.000888
      1.86814      5.07265      3.54592         0.009013      0.000673     -0.001680
      1.86814      3.54592      5.07264         0.009008     -0.001713      0.000704
      5.07264      3.54591      1.86815         0.000591     -0.001268      0.008882
      5.07260      5.07264      6.75035         0.001455      0.000808     -0.008954
      6.75036      5.07263      5.07262        -0.008981      0.000930      0.001120
      7.85512      2.44111      7.85512        -0.000878     -0.008915     -0.000781
    total drift:                               -0.000070     -0.000039      0.000047

  FREE ENERGIE OF THE ION-ELECTRON SYSTEM (eV)
  free  energy   TOTEN  =      -592.49733258 eV

  energy  without entropy=     -592.35121653  energy(sigma->0) =     -592.42427456

 d Force = 0.9861542E-03[-0.668E-04, 0.204E-02]  d Energy =-0.2262635E-02 0.325E-02
 d Force =-0.4408117E+01[-0.453E+01,-0.429E+01]  d Ewald  =-0.4408268E+01 0.151E-03

 reached required accuracy - stopping structural energy minimisation
 writing wavefunctions