 vasp.6.3.2 27Jun22 (build Nov 12 2024 19:13:04) complex

 executed on             LinuxIFC date 2025.04.16  10:26:54

 INCAR:
   PREC = Accurate
   ISYM = 0
   IALGO = 48
   NCORE = 8
   ISMEAR = 0
   SIGMA = 0.05
   ENCUT = 500
   EDIFF = 1E-06
   LREAL = Auto
   LWAVE = .FALSE.
   LCHARG = .FALSE.
   LORBIT = 11
   LDAU = .TRUE.
   LDATYPE = 2
   LDAUL = 2 -1 -1 -1 -1
   LDAUU = 2.0 0.0 0.0 0.0 0.0
   LDAUJ = 0.0 0.0 0.0 0.0 0.0
   LMAXMIX = 4
   LDAUPRINT = 1
   LASPH = .TRUE.
   NELM = 5000
   NEDOS = 1000
   IBRION = -1
   NSW = 0
   ISPIN = 2
   MAGMOM = 12*5.0 47*0.0 24*0.0 216*0.0 336*0.0

 POTCAR:    PAW_PBE Mn_pv 02Aug2007
 POTCAR:    PAW_PBE Br 06Sep2000
 POTCAR:    PAW_PBE N 08Apr2002
 POTCAR:    PAW_PBE C 08Apr2002
 POTCAR:    PAW_PBE H 15Jun2001
 POTCAR:    PAW_PBE Mn_pv 02Aug2007
   VRHFIN =Mn: 3p4s3d

   TITEL  = PAW_PBE Mn_pv 02Aug2007
   POMASS =   54.938; ZVAL   =   13.000    mass and valenz
   ENMAX  =  269.864; ENMIN  =  202.398 eV

   TITEL  = PAW_PBE Br 06Sep2000
   POMASS =   79.904; ZVAL   =    7.000    mass and valenz
   ENMAX  =  216.285; ENMIN  =  162.214 eV

   TITEL  = PAW_PBE N 08Apr2002
   POMASS =   14.001; ZVAL   =    5.000    mass and valenz
   ENMAX  =  400.000; ENMIN  =  300.000 eV

   TITEL  = PAW_PBE C 08Apr2002
   POMASS =   12.011; ZVAL   =    4.000    mass and valenz
   ENMAX  =  400.000; ENMIN  =  300.000 eV

   TITEL  = PAW_PBE H 15Jun2001
   POMASS =    1.000; ZVAL   =    1.000    mass and valenz
   ENMAX  =  250.000; ENMIN  =  200.000 eV

 Optimization of the real space projectors (new method)

 maximal supplied QI-value         = 16.25
 optimisation between [QCUT,QGAM] = [ 11.38, 22.75] = [ 36.24,144.96] Ry
 Optimized for a Real-space Cutoff    1.47 Angstroem

   l    n(q)    QCUT    max X(q) W(low)/X(q) W(high)/X(q)  e(spline)
   1     10    11.376     3.658    0.62E-04    0.11E-03    0.11E-06
   1     10    11.376     5.612    0.12E-03    0.20E-03    0.19E-06
   2      9    11.376    55.373    0.10E-03    0.85E-04    0.19E-06
   2      9    11.376    50.863    0.11E-03    0.88E-04    0.19E-06
   0     10    11.376    79.536    0.52E-04    0.21E-04    0.79E-07
   0     10    11.376    38.668    0.45E-04    0.19E-04    0.74E-07
 Optimization of the real space projectors (new method)

[...]

   l    n(q)    QCUT    max X(q) W(low)/X(q) W(high)/X(q)  e(spline)
   0      7    11.310   115.676    0.20E-03    0.90E-03    0.20E-06
   0      7    11.310    87.132    0.20E-03    0.89E-03    0.19E-06
   1      6    11.310     4.429    0.16E-03    0.28E-03    0.12E-06
   1      6    11.310     2.733    0.12E-03    0.21E-03    0.99E-07
 Optimization of the real space projectors (new method)

 maximal supplied QI-value         = 34.20
 optimisation between [QCUT,QGAM] = [ 11.29, 22.57] = [ 35.68,142.71] Ry
 Optimized for a Real-space Cutoff    1.20 Angstroem

   l    n(q)    QCUT    max X(q) W(low)/X(q) W(high)/X(q)  e(spline)
   0      8    11.287    19.460    0.22E-03    0.50E-03    0.19E-06
   0      8    11.287    12.209    0.21E-03    0.48E-03    0.18E-06
   1      8    11.287     4.655    0.21E-03    0.11E-04    0.26E-06
  PAW_PBE Mn_pv 02Aug2007               :
  PAW_PBE Br 06Sep2000                  :
  PAW_PBE N 08Apr2002                   :
  PAW_PBE C 08Apr2002                   :
  PAW_PBE H 15Jun2001                   :

 POSCAR: (c9 h14 n), br4 mn
  positions in direct lattice
  velocities in cartesian coordinates
 exchange correlation table for  LEXCH =        8
   RHO(1)=    0.500       N(1)  =     2000
   RHO(2)=  100.500       N(2)  =     4000

 ion  position               nearest neighbor table
   1  0.987  0.487  0.751-  14 2.48  22 2.49  20 2.50
   2  0.999  0.480  0.250-  21 2.52  15 2.53  23 2.53  13 2.53
   3  0.500  0.020  0.750-  24 2.52  18 2.53  16 2.53  26 2.53
   4  0.499  0.980  0.250-  25 2.52  19 2.53  27 2.53  17 2.53
   5  0.723  0.597  0.912-  52 2.52  44 2.52  36 2.52  28 2.54
   6  0.277  0.405  0.087-  37 2.50  53 2.50  45 2.52  29 2.52
   7  0.277  0.597  0.588-  46 2.52  54 2.52  38 2.52  30 2.54
   8  0.723  0.403  0.413-  39 2.51  55 2.52  47 2.53  31 2.53
   9  0.223  0.097  0.912-  56 2.52  48 2.52  40 2.52  32 2.54
  10  0.776  0.904  0.087-  41 2.51  49 2.52  57 2.52  33 2.53
  11  0.778  0.096  0.587-  42 2.51  58 2.52  50 2.52  34 2.54
  12  0.223  0.904  0.413-  43 2.51  51 2.52  59 2.53  35 2.53
  13  0.911  0.306  0.275-   2 2.53
  14  0.929  0.710  0.771-   1 2.48
  15  0.089  0.308  0.225-   2 2.53
  16  0.588  0.194  0.725-   3 2.53
  17  0.411  0.805  0.275-   4 2.53
  18  0.410  0.192  0.774-   3 2.53
  19  0.588  0.807  0.225-   4 2.53
  20  0.081  0.349  0.783-   1 2.50
  21  0.925  0.644  0.215-   2 2.52
  22  0.925  0.348  0.711-   1 2.49
  23  0.073  0.642  0.285-   2 2.53
  24  0.575  0.858  0.784-   3 2.52
  25  0.425  0.144  0.215-   4 2.52
  26  0.424  0.859  0.715-   3 2.53
  27  0.573  0.142  0.285-   4 2.53
  28  0.658  0.385  0.886-   5 2.54
  29  0.342  0.615  0.113-   6 2.52
  30  0.342  0.386  0.614-   7 2.54
  31  0.658  0.616  0.387-   8 2.53
  32  0.158  0.884  0.886-   9 2.54
  33  0.842  0.116  0.113-  10 2.53
  34  0.843  0.884  0.613-  11 2.54
  35  0.158  0.116  0.387-  12 2.53
  36  0.790  0.749  0.876-   5 2.52
  37  0.209  0.256  0.123-   6 2.50
  38  0.210  0.749  0.624-   7 2.52
  39  0.790  0.252  0.377-   8 2.51
  40  0.290  0.249  0.876-   9 2.52
  41  0.710  0.752  0.123-  10 2.51
  42  0.710  0.248  0.623-  11 2.51
  43  0.290  0.752  0.377-  12 2.51
  44  0.633  0.766  0.937-   5 2.52
  45  0.367  0.234  0.062-   6 2.52
  46  0.367  0.766  0.563-   7 2.52
  47  0.632  0.234  0.438-   8 2.53
  48  0.133  0.266  0.937-   9 2.52
  49  0.867  0.735  0.062-  10 2.52
  50  0.868  0.266  0.563-  11 2.52
  51  0.133  0.734  0.438-  12 2.52
  52  0.822  0.497  0.948-   5 2.52
  53  0.180  0.504  0.051-   6 2.50
  54  0.178  0.497  0.552-   7 2.52
  55  0.822  0.502  0.450-   8 2.52
  56  0.323  0.998  0.948-   9 2.52
  57  0.679  0.002  0.050-  10 2.52
  58  0.679  0.996  0.551-  11 2.52
  59  0.321  0.003  0.450-  12 2.53
  60  0.831  0.026  0.972- 100 1.51  84 1.51 108 1.51  92 1.51
[...]
 621  0.270  0.047  0.187- 285 1.09
 622  0.268  0.954  0.686- 286 1.09
 623  0.730  0.047  0.313- 287 1.09
 624  0.234  0.451  0.814- 288 1.09
 625  0.770  0.547  0.186- 289 1.09
 626  0.769  0.452  0.687- 290 1.09
 627  0.230  0.546  0.313- 291 1.09
 628  0.647  0.168  0.806- 292 1.09
 629  0.353  0.832  0.194- 293 1.09
 630  0.351  0.168  0.694- 294 1.09
 631  0.647  0.832  0.306- 295 1.09
 632  0.149  0.664  0.807- 296 1.09
 633  0.853  0.332  0.194- 297 1.09
 634  0.852  0.667  0.694- 298 1.09
 635  0.147  0.332  0.306- 299 1.09

IMPORTANT INFORMATION: All symmetrisations will be switched off!
NOSYMM: (Re-)initialisation of all symmetry stuff for point group C_1.

                                     Primitive cell

  volume of cell :    7407.0461

  direct lattice vectors                    reciprocal lattice vectors
    17.127099991  0.000000000  0.000000000     0.058387001  0.000000000  0.002656447
     0.000000000  9.178700447  0.000000000     0.000000000  0.108947885  0.000000000
    -2.143705240  0.000000000 47.117259241     0.000000000  0.000000000  0.021223645

  length of vectors
    17.127099991  9.178700447 47.166000366     0.058447400  0.108947885  0.021223645

  position of ions in fractional coordinates (direct lattice)
     0.987227083  0.486588005  0.751182189
     0.999413282  0.480085965  0.250201880
     0.499749023  0.020347461  0.749706970
     0.499291758  0.979783708  0.250112410
     0.723390023  0.596609651  0.912388813
     0.276915456  0.405168109  0.086904395
     0.276512740  0.597079221  0.587685176
     0.723016579  0.403487513  0.413164332
     0.223252777  0.096639738  0.912227840
     0.776281121  0.903750462  0.086922640
     0.777567810  0.096395727  0.587261332
     0.223155726  0.903665725  0.413273439
     0.911296855  0.305772993  0.275361930
     0.929237494  0.709781686  0.770867930
     0.089001087  0.307690262  0.225499383
     0.588094136  0.194407483  0.724717105
     0.411381574  0.805476733  0.275345435
     0.409529649  0.192299670  0.774261180
     0.588269681  0.806765405  0.225180095
     0.081049078  0.349418998  0.783377775
     0.925087612  0.643549214  0.215476441
     0.925062776  0.347834593  0.710926158
     0.073333424  0.642417949  0.285424901
     0.575027872  0.857906232  0.784329235
     0.425029829  0.143704079  0.215477452
     0.423585538  0.858679279  0.714951096
     0.573287718  0.142379455  0.285319034
     0.657737619  0.384955199  0.886106746
     0.341746164  0.615073068  0.112973527
     0.342274454  0.385862155  0.613883587
     0.658224680  0.615858964  0.387231384
     0.157503617  0.884074098  0.886169596
     0.841609636  0.115769781  0.112818386
     0.842891300  0.884412128  0.613372937
     0.158355756  0.115784886  0.387212480
     0.790064257  0.748876070  0.876157428
     0.208759488  0.256364202  0.122528458
     0.209914926  0.749407563  0.624004512
     0.789951614  0.251649072  0.377263853
     0.289764851  0.248772010  0.875970801
     0.709540808  0.751796543  0.122950421
     0.709796891  0.248082933  0.623035794
     0.290114827  0.752062595  0.377340203
     0.633245596  0.765604722  0.937378411
     0.366864367  0.234269583  0.062437631
     0.366554777  0.766103097  0.562701197
     0.632412930  0.234222607  0.438141005
     0.133207141  0.265842852  0.937201068
     0.867277095  0.734701346  0.062203399
     0.867764297  0.266352332  0.562522592
     0.132551272  0.734086410  0.438168915
     0.822485402  0.497265571  0.948379256
     0.179884330  0.504445130  0.050684091
     0.177508449  0.497283148  0.551663708
     0.821741973  0.502143617  0.449633344
     0.322583700  0.997763510  0.948145614
     0.678597599  0.002326154  0.050101067
     0.678957312  0.996201282  0.551132632
     0.321199324  0.003426462  0.449898649
     0.831059056  0.026006509  0.971986294
[...]
     0.269970468  0.046896931  0.186512931
     0.267937547  0.953855904  0.686102821
     0.729862287  0.046510705  0.313342323
     0.233503733  0.451228871  0.813953146
     0.769924607  0.546737397  0.186468707
     0.769015142  0.452293180  0.686938734
     0.229801496  0.546499338  0.313338275
     0.647408072  0.168391515  0.805669246
     0.353216226  0.832186465  0.193816024
     0.350752275  0.168449657  0.693691795
     0.646731552  0.831860992  0.306015994
     0.148898415  0.664287566  0.806557634
     0.853146943  0.332095709  0.193839786
     0.852084659  0.666980474  0.694242523
     0.146739004  0.331785877  0.306004452

  ion indices of the primitive-cell ions
   primitive index   ion index
                 1           1
                 2           2
                 3           3
                 4           4
                 5           5
                 6           6
                 7           7
                 8           8
                 9           9
                10          10
                11          11
                12          12
                13          13
                14          14
                15          15
                16          16
[...]
   -.652E+02 0.106E+03 -.562E+02   0.657E+02 -.106E+03 0.568E+02   -.558E+00 0.667E+00 -.576E+00   -.615E-03 -.152E-04 -.935E-03
   0.625E+02 -.106E+03 0.636E+02   -.631E+02 0.107E+03 -.642E+02   0.550E+00 -.693E+00 0.555E+00   0.104E-03 -.352E-05 -.619E-03
   0.822E+02 0.108E+03 0.600E+02   -.827E+02 -.109E+03 -.607E+02   0.532E+00 0.643E+00 0.696E+00   -.997E-03 -.432E-03 -.238E-02
   -.665E+02 -.106E+03 -.623E+02   0.671E+02 0.106E+03 0.630E+02   -.530E+00 -.685E+00 -.684E+00   0.191E-03 0.223E-04 -.349E-03
   0.709E+02 0.110E+03 0.637E+02   -.712E+02 -.111E+03 -.642E+02   0.368E+00 0.834E+00 0.519E+00   -.133E-03 -.700E-05 -.632E-03
   -.746E+02 -.114E+03 -.506E+02   0.750E+02 0.115E+03 0.511E+02   -.323E+00 -.778E+00 -.515E+00   0.134E-04 0.506E-05 -.629E-03
   -.668E+02 0.110E+03 -.699E+02   0.672E+02 -.111E+03 0.703E+02   -.387E+00 0.821E+00 -.414E+00   -.478E-02 0.166E-01 -.944E-02
   0.713E+02 -.112E+03 0.470E+02   -.717E+02 0.113E+03 -.475E+02   0.352E+00 -.835E+00 0.468E+00   0.134E-04 -.582E-04 0.493E-03
   0.740E+02 0.111E+03 0.680E+02   -.743E+02 -.112E+03 -.685E+02   0.367E+00 0.841E+00 0.507E+00   0.135E-03 0.149E-04 -.603E-03
   -.716E+02 -.112E+03 -.482E+02   0.720E+02 0.113E+03 0.487E+02   -.354E+00 -.829E+00 -.528E+00   -.182E-04 0.676E-05 -.611E-03
   -.798E+02 0.112E+03 -.717E+02   0.802E+02 -.112E+03 0.721E+02   -.368E+00 0.915E+00 -.459E+00   0.352E-02 -.569E-02 0.527E-02
   0.716E+02 -.111E+03 0.470E+02   -.719E+02 0.112E+03 -.474E+02   0.387E+00 -.852E+00 0.483E+00   -.222E-02 0.440E-02 -.181E-02
   -.840E+02 -.109E+03 0.121E+03   0.844E+02 0.110E+03 -.122E+03   -.430E+00 -.763E+00 0.775E+00   -.121E-03 0.183E-04 -.513E-03
   0.843E+02 0.114E+03 -.105E+03   -.848E+02 -.115E+03 0.105E+03   0.417E+00 0.672E+00 -.744E+00   0.754E-05 -.350E-05 -.638E-03
   0.873E+02 -.109E+03 -.135E+03   -.877E+02 0.109E+03 0.136E+03   0.442E+00 -.810E+00 -.709E+00   0.963E-02 -.124E-01 -.962E-02
   -.806E+02 0.110E+03 0.101E+03   0.811E+02 -.110E+03 -.101E+03   -.437E+00 0.747E+00 0.729E+00   -.316E-03 0.504E-04 0.317E-03
   -.766E+02 -.111E+03 0.121E+03   0.770E+02 0.111E+03 -.121E+03   -.443E+00 -.757E+00 0.791E+00   0.123E-03 -.269E-05 -.738E-03
   0.794E+02 0.109E+03 -.102E+03   -.798E+02 -.110E+03 0.103E+03   0.426E+00 0.755E+00 -.807E+00   -.981E-05 -.100E-05 -.595E-03
   0.768E+02 -.111E+03 -.118E+03   -.772E+02 0.112E+03 0.119E+03   0.535E+00 -.809E+00 -.775E+00   -.567E-02 0.485E-02 0.724E-02
   -.808E+02 0.110E+03 0.100E+03   0.811E+02 -.110E+03 -.101E+03   -.494E+00 0.816E+00 0.844E+00   0.356E-02 -.326E-02 -.312E-02
   0.998E+02 -.951E+02 -.478E+02   -.101E+03 0.957E+02 0.483E+02   0.817E+00 -.608E+00 -.544E+00   -.528E-04 0.178E-05 -.639E-03
   -.102E+03 0.983E+02 0.682E+02   0.103E+03 -.989E+02 -.687E+02   -.791E+00 0.598E+00 0.489E+00   0.464E-05 0.414E-06 -.639E-03
   -.976E+02 -.954E+02 0.437E+02   0.984E+02 0.959E+02 -.442E+02   -.876E+00 -.641E+00 0.599E+00   -.137E-01 -.948E-02 0.100E-01
   0.101E+03 0.962E+02 -.666E+02   -.102E+03 -.968E+02 0.671E+02   0.825E+00 0.613E+00 -.586E+00   -.460E-03 0.128E-03 0.847E-03
   0.101E+03 -.961E+02 -.451E+02   -.102E+03 0.967E+02 0.457E+02   0.816E+00 -.607E+00 -.541E+00   0.516E-04 -.106E-04 -.605E-03
   -.101E+03 0.964E+02 0.657E+02   0.102E+03 -.970E+02 -.662E+02   -.817E+00 0.597E+00 0.516E+00   -.162E-04 0.808E-05 -.627E-03
   -.103E+03 -.965E+02 0.420E+02   0.104E+03 0.970E+02 -.426E+02   -.885E+00 -.667E+00 0.645E+00   0.623E-02 0.523E-02 -.259E-02
   0.101E+03 0.966E+02 -.670E+02   -.102E+03 -.972E+02 0.675E+02   0.930E+00 0.659E+00 -.627E+00   -.282E-02 -.397E-02 0.553E-02
   -.120E+03 0.300E+02 -.567E+02   0.121E+03 -.304E+02 0.574E+02   -.885E+00 0.464E+00 -.686E+00   -.319E-04 -.425E-05 -.599E-03
   0.126E+03 -.307E+02 0.813E+02   -.127E+03 0.312E+02 -.820E+02   0.816E+00 -.443E+00 0.616E+00   0.228E-04 -.103E-04 -.635E-03
   0.119E+03 0.302E+02 0.514E+02   -.120E+03 -.306E+02 -.520E+02   0.944E+00 0.524E+00 0.771E+00   0.130E-01 0.285E-02 0.148E-01
   -.120E+03 -.294E+02 -.769E+02   0.121E+03 0.299E+02 0.776E+02   -.887E+00 -.462E+00 -.724E+00   0.293E-04 0.664E-04 0.742E-03
   -.118E+03 0.310E+02 -.560E+02   0.119E+03 -.315E+02 0.567E+02   -.888E+00 0.458E+00 -.672E+00   0.259E-04 -.560E-05 -.673E-03
   0.119E+03 -.292E+02 0.753E+02   -.120E+03 0.297E+02 -.760E+02   0.863E+00 -.458E+00 0.699E+00   -.606E-05 -.920E-05 -.631E-03
   0.120E+03 0.298E+02 0.544E+02   -.121E+03 -.302E+02 -.550E+02   0.901E+00 0.477E+00 0.715E+00   -.836E-02 -.454E-02 -.212E-02
   -.120E+03 -.288E+02 -.769E+02   0.121E+03 0.292E+02 0.775E+02   -.961E+00 -.544E+00 -.819E+00   0.347E-02 0.206E-02 0.739E-02
   0.185E+02 0.220E+02 0.554E+02   -.186E+02 -.222E+02 -.554E+02   0.655E-01 0.263E+00 -.943E-01   -.765E-05 0.118E-04 -.444E-03
[...]
   -.144E+02 0.560E+02 0.111E+02   0.170E+02 -.611E+02 -.124E+02   -.259E+01 0.512E+01 0.131E+01   0.131E-03 -.159E-03 -.420E-03
   0.180E+02 -.544E+02 -.132E+02   -.206E+02 0.596E+02 0.143E+02   0.256E+01 -.516E+01 -.116E+01   -.166E-04 0.428E-05 -.224E-04
   0.196E+02 0.532E+02 -.934E+01   -.221E+02 -.584E+02 0.106E+02   0.249E+01 0.518E+01 -.123E+01   0.741E-04 -.405E-05 -.121E-03
   -.181E+02 -.544E+02 0.135E+02   0.206E+02 0.596E+02 -.147E+02   -.255E+01 -.516E+01 0.118E+01   -.261E-05 0.314E-05 -.778E-04
   -.197E+02 0.534E+02 0.113E+02   0.222E+02 -.585E+02 -.125E+02   -.257E+01 0.516E+01 0.116E+01   -.153E-03 0.198E-04 0.867E-04
   0.180E+02 -.545E+02 -.132E+02   -.206E+02 0.596E+02 0.144E+02   0.257E+01 -.516E+01 -.115E+01   0.166E-04 -.426E-04 -.148E-03
   0.552E+02 0.152E+02 -.509E+01   -.610E+02 -.159E+02 0.536E+01   0.582E+01 0.731E+00 -.269E+00   -.745E-04 -.201E-05 -.962E-04
   -.553E+02 -.152E+02 0.698E+01   0.612E+02 0.159E+02 -.729E+01   -.582E+01 -.731E+00 0.317E+00   0.138E-04 0.123E-05 -.935E-04
   -.530E+02 0.152E+02 0.696E+01   0.589E+02 -.159E+02 -.737E+01   -.583E+01 0.710E+00 0.403E+00   -.124E-04 0.979E-04 -.401E-03
   0.551E+02 -.151E+02 -.728E+01   -.610E+02 0.159E+02 0.758E+01   0.583E+01 -.739E+00 -.297E+00   0.120E-04 -.416E-06 -.295E-04
   0.571E+02 0.158E+02 0.934E+00   -.629E+02 -.166E+02 -.571E+00   0.580E+01 0.786E+00 -.365E+00   0.940E-04 0.181E-04 -.748E-04
   -.553E+02 -.152E+02 0.745E+01   0.612E+02 0.159E+02 -.776E+01   -.582E+01 -.733E+00 0.317E+00   -.583E-05 0.160E-05 -.806E-04
   -.607E+02 0.147E+02 0.377E+01   0.665E+02 -.155E+02 -.408E+01   -.581E+01 0.737E+00 0.290E+00   0.600E-05 0.855E-05 0.324E-04
   0.552E+02 -.151E+02 -.728E+01   -.610E+02 0.158E+02 0.758E+01   0.583E+01 -.736E+00 -.295E+00   -.309E-04 0.145E-04 -.122E-03
   0.162E+01 -.121E+01 0.163E+01   -.379E-11 -.711E-14 -.457E-12   -.163E+01 0.127E+01 -.171E+01   0.654E-02 -.134E-01 0.126E-01

 POSITION                                       TOTAL-FORCE (eV/Angst)
     15.29802      4.46625     35.39365        -0.045078     -0.072777      0.020796
     16.58069      4.40657     11.78883         0.005213      0.005627      0.072744
      6.95210      0.18676     35.32414         0.000467     -0.003473     -0.069754
      8.01525      8.99314     11.78461         0.014523     -0.000069      0.073344
     10.43368      5.47610     42.98926         0.011168     -0.008148     -0.026368
      4.55646      3.71892      4.09470         0.034923     -0.017213      0.016741
      3.47604      5.48041     27.69011        -0.050115      0.028632     -0.058427
     11.49747      3.70349     19.46717         0.009606      0.003183      0.059275
      1.86813      0.88703     42.98168         0.012400     -0.008047     -0.035111
     13.10911      8.29525      4.09556        -0.012584      0.002661      0.014903
     12.05857      0.88479     27.67014        -0.040126      0.031143     -0.025533
      2.93607      8.29448     19.47231         0.018885     -0.023585      0.054894
     15.01758      2.80660     12.97430         0.038475      0.009476     -0.022812
     14.26263      6.51487     36.32118         0.036399     -0.015338      0.035836
      1.04093      2.82420     10.62491        -0.022329     -0.009892     -0.067664
      8.51877      1.78441     34.14668        -0.046604     -0.005869      0.033264
      6.45551      7.39323     12.97352         0.039550      0.011396     -0.022451
      5.35427      1.76506     36.48106         0.024520      0.016135      0.066267
      9.59263      7.40506     10.60987        -0.024716      0.003392     -0.056317
     -0.29120      3.20721     36.91061         0.000332      0.023400      0.013080
     15.38215      5.90695     10.15266         0.000775     -0.003390     -0.048066
     14.31963      3.19267     33.49689         0.042113      0.047633      0.085664
      0.64412      5.89656     13.44844        -0.002982     -0.014667     -0.045603
      8.16719      7.87446     36.95544         0.005556     -0.005738      0.038778
      6.81761      1.31902     10.15271        -0.003684     -0.001685     -0.050986
      5.72215      7.88156     33.68654         0.007482     -0.003154      0.044925
      9.20712      1.30686     13.44345        -0.002260     -0.021519     -0.046563
      9.36559      3.53339     41.75092        -0.007404      0.012544      0.027523
      5.61094      5.64557      5.32300         0.064321      0.074226      0.021248
      4.54618      3.54171     28.92451        -0.015953      0.046790      0.005045
     10.44337      5.65278     18.24528        -0.026800      0.008911     -0.021024
      0.79789      8.11465     41.75388        -0.003103      0.020025      0.027918
     14.17248      1.06262      5.31569         0.026654      0.004791     -0.015894
     13.12139      8.11775     28.90045        -0.032758      0.133874     -0.040378
      1.88211      1.06275     18.24439         0.050367     -0.106305      0.049334
     11.65329      6.87371     41.28214        -0.012211     -0.048020      0.024542
      3.31278      2.35309      5.77321        -0.041643     -0.058801      0.058023
      2.25755      6.87859     29.40138         0.064602     -0.110417     -0.054888
     12.72084      2.30981     17.77564         0.007026      0.023662     -0.032102
      3.08501      2.28340     41.27334        -0.019350     -0.044740      0.031711
     11.88881      6.90052      5.79309        -0.000565      0.041296     -0.022759
     10.82116      2.27708     29.35574         0.125040     -0.128120     -0.090080
      4.15992      6.90296     17.77924        -0.099962      0.140841      0.136124
      8.83620      7.02726     44.16670         0.013141     -0.004596      0.022828
      6.14947      2.15029      2.94189         0.020997     -0.023243     -0.053974
      5.07175      7.03183     26.51294        -0.113916     -0.089800      0.056622
      9.89215      2.14986     20.64400         0.031386      0.018626     -0.024952
      0.27237      2.44009     44.15835         0.013493     -0.001791      0.025005
     14.72060      6.74360      2.93085        -0.012645     -0.003761     -0.022442
     13.65640      2.44477     26.50452        -0.140191     -0.113795      0.100960
      1.33091      6.73796     20.64532         0.189774      0.132099     -0.112416
     12.05374      4.56425     44.68503        -0.015471      0.021496      0.021152
      2.97225      4.63015      2.38810        -0.083153      0.013430     -0.104712
      1.85760      4.56441     25.99288         0.127194      0.100083      0.110236
     13.11018      4.60903     21.18549        -0.026681     -0.032022     -0.027013
      3.49238      9.15817     44.67402        -0.016486      0.014731      0.032874
     11.51501      0.02135      2.36062         0.004281     -0.025649      0.004247
     10.44710      9.14383     25.96786         0.100297      0.077575      0.085574
      4.53676      0.03145     21.19799        -0.155895     -0.134101     -0.179884
     12.14998      0.23871     45.79733         0.003797     -0.001949     -0.000541
[...]
      4.22398      0.43045      8.78798         0.020793      0.004812      0.016506
      3.11819      8.75516     32.32728         0.007724     -0.005526     -0.011627
     11.82871      0.42691     14.76383        -0.011293     -0.003363      0.001445
      2.25437      4.14169     38.35124        -0.010714      0.001368     -0.005997
     12.78684      5.01834      8.78589         0.019696      0.003903      0.012509
     11.69841      4.15146     32.36667         0.002319      0.001634     -0.011966
      3.26413      5.01615     14.76364        -0.013293      0.002533      0.004098
      9.36111      1.54562     37.96093         0.002412     -0.005274     -0.006611
      5.63409      7.63839      9.13208         0.005593      0.008391      0.009096
      4.52030      1.54615     32.68486        -0.014896     -0.001893     -0.011259
     10.42063      7.63540     14.41863        -0.005406      0.003749      0.006378
      0.82118      6.09730     38.00279         0.005209     -0.004353     -0.001948
     14.19640      3.04821      9.13320         0.005667      0.004662      0.008409
     13.10549      6.12201     32.71080        -0.005131     -0.003455     -0.015960
      1.85723      3.04536     14.41809        -0.001487      0.002291      0.007867
    total drift:                               -0.009860      0.051582     -0.065439

  FREE ENERGIE OF THE ION-ELECTRON SYSTEM (eV)
  free  energy   TOTEN  =     -3596.53487741 eV

  energy  without entropy=    -3596.50893211  energy(sigma->0) =    -3596.52190476

 total charge

[...]

 magnetization (x)

# of ion       s       p       d       tot
    1        0.015   0.026   4.090   4.131
    2        0.034   0.040   4.398   4.472
    3       -0.034  -0.040  -4.398  -4.472
    4        0.034   0.040   4.399   4.473
    5        0.034   0.041   4.393   4.468
    6        0.034   0.042   4.382   4.457
    7        0.008   0.005   1.039   1.052
    8        0.034   0.041   4.392   4.467
    9        0.034   0.041   4.393   4.468
   10        0.034   0.041   4.393   4.467
   11        0.007   0.009   0.959   0.975
   12       -0.007  -0.008  -0.934  -0.949
   13        0.002   0.028   0.003   0.033
   14       -0.001   0.006   0.005   0.010
   15        0.002   0.027   0.003   0.033
   16       -0.002  -0.028  -0.003  -0.033
   17        0.002   0.028   0.003   0.033
   18       -0.002  -0.027  -0.003  -0.033
   19        0.002   0.027   0.003   0.033
   20       -0.000   0.008   0.005   0.013
   21        0.002   0.025   0.003   0.031
   22       -0.001   0.006   0.005   0.010
   23        0.002   0.027   0.003   0.032
   24       -0.002  -0.025  -0.003  -0.031
   25        0.002   0.025   0.003   0.031
   26       -0.002  -0.026  -0.003  -0.032
   27        0.002   0.026   0.003   0.032
   28        0.002   0.024   0.003   0.030
   29        0.002   0.026   0.004   0.032
   30        0.001  -0.003   0.001  -0.001
   31        0.002   0.024   0.004   0.030
   32        0.002   0.024   0.003   0.030
   33        0.002   0.025   0.003   0.031
   34        0.000   0.001   0.001   0.002
   35       -0.002  -0.003  -0.001  -0.005
   36        0.003   0.030   0.003   0.036
   37        0.003   0.032   0.004   0.038
   38       -0.000  -0.006   0.001  -0.006
   39        0.003   0.030   0.003   0.036
   40        0.003   0.030   0.003   0.036
   41        0.002   0.031   0.003   0.036
   42       -0.000   0.003   0.001   0.004
   43        0.000  -0.000  -0.001  -0.001
   44        0.002   0.028   0.003   0.033
   45        0.002   0.028   0.003   0.034
   46       -0.001  -0.002   0.001  -0.003
   47        0.002   0.028   0.003   0.033
   48        0.002   0.027   0.003   0.033
   49        0.002   0.028   0.003   0.033
   50       -0.000   0.001   0.001   0.002
   51       -0.000  -0.002  -0.001  -0.003
   52        0.002   0.029   0.003   0.034
   53        0.002   0.029   0.004   0.035
   54       -0.000  -0.004   0.001  -0.003
   55        0.002   0.028   0.003   0.034
   56        0.002   0.029   0.003   0.034
   57        0.002   0.028   0.003   0.033
   58        0.001   0.002   0.001   0.004
   59        0.000  -0.002  -0.001  -0.003
   60        0.000   0.000   0.000   0.000
[...]
  621        0.000   0.000   0.000   0.000
  622       -0.000  -0.000   0.000  -0.000
  623        0.000   0.000   0.000   0.000
  624        0.000   0.000   0.000   0.000
  625        0.000   0.000   0.000   0.000
  626        0.000   0.000   0.000   0.000
  627        0.000   0.000   0.000   0.000
  628       -0.000   0.000   0.000  -0.000
  629        0.000   0.000   0.000   0.000
  630       -0.000   0.000   0.000  -0.000
  631        0.000   0.000   0.000   0.000
  632        0.000  -0.000   0.000  -0.000
  633        0.000   0.000   0.000   0.000
  634        0.000  -0.000   0.000  -0.000
  635        0.000   0.000   0.000   0.000
tot          0.286   0.966  31.603  32.855