 vasp.6.3.2 27Jun22 (build Sep 02 2024 12:59:48) complex

 executed on             LinuxIFC date 2024.09.24  00:05:12

 INCAR:
   SYSTEM = MAPbI3-BSO
   PREC = Accurate
   ISYM = 0
   ISMEAR = 0
   SIGMA = 0.05
   ENCUT = 500
   EDIFF = 1E-06
   LREAL = Auto
   LWAVE = .TRUE.
   LCHARG = .TRUE.
   LORBIT = 11
   NELM = 500
   NEDOS = 1000
   IBRION = -1
   NSW = 0
   ISPIN = 2
   MAGMOM = 12*5.0 48*0.0 24*0.0 216*0.0 336*0.0

 POTCAR:    PAW_PBE Mn_pv 02Aug2007
 POTCAR:    PAW_PBE Br 06Sep2000
 POTCAR:    PAW_PBE N 08Apr2002
 POTCAR:    PAW_PBE C 08Apr2002
 POTCAR:    PAW_PBE H 15Jun2001
 POTCAR:    PAW_PBE Mn_pv 02Aug2007
   VRHFIN =Mn: 3p4s3d

   TITEL  = PAW_PBE Mn_pv 02Aug2007
   POMASS =   54.938; ZVAL   =   13.000    mass and valenz
   ENMAX  =  269.864; ENMIN  =  202.398 eV

   TITEL  = PAW_PBE Br 06Sep2000
   POMASS =   79.904; ZVAL   =    7.000    mass and valenz
   ENMAX  =  216.285; ENMIN  =  162.214 eV

   TITEL  = PAW_PBE N 08Apr2002
   POMASS =   14.001; ZVAL   =    5.000    mass and valenz
   ENMAX  =  400.000; ENMIN  =  300.000 eV

   TITEL  = PAW_PBE C 08Apr2002
   POMASS =   12.011; ZVAL   =    4.000    mass and valenz
   ENMAX  =  400.000; ENMIN  =  300.000 eV

   TITEL  = PAW_PBE H 15Jun2001
   POMASS =    1.000; ZVAL   =    1.000    mass and valenz
   ENMAX  =  250.000; ENMIN  =  200.000 eV

 Optimization of the real space projectors (new method)

 maximal supplied QI-value         = 16.25
 optimisation between [QCUT,QGAM] = [ 11.38, 22.75] = [ 36.24,144.96] Ry
 Optimized for a Real-space Cutoff    1.47 Angstroem

   l    n(q)    QCUT    max X(q) W(low)/X(q) W(high)/X(q)  e(spline)
   1     10    11.376     3.658    0.62E-04    0.11E-03    0.11E-06
   1     10    11.376     5.612    0.12E-03    0.20E-03    0.19E-06
   2      9    11.376    55.373    0.10E-03    0.85E-04    0.19E-06
   2      9    11.376    50.863    0.11E-03    0.88E-04    0.19E-06
   0     10    11.376    79.536    0.52E-04    0.21E-04    0.79E-07
   0     10    11.376    38.668    0.45E-04    0.19E-04    0.74E-07
 Optimization of the real space projectors (new method)

[...]

   l    n(q)    QCUT    max X(q) W(low)/X(q) W(high)/X(q)  e(spline)
   0      7    11.310   115.676    0.20E-03    0.90E-03    0.20E-06
   0      7    11.310    87.132    0.20E-03    0.89E-03    0.19E-06
   1      6    11.310     4.429    0.16E-03    0.28E-03    0.12E-06
   1      6    11.310     2.733    0.12E-03    0.21E-03    0.99E-07
 Optimization of the real space projectors (new method)

 maximal supplied QI-value         = 34.20
 optimisation between [QCUT,QGAM] = [ 11.29, 22.57] = [ 35.68,142.71] Ry
 Optimized for a Real-space Cutoff    1.20 Angstroem

   l    n(q)    QCUT    max X(q) W(low)/X(q) W(high)/X(q)  e(spline)
   0      8    11.287    19.460    0.22E-03    0.50E-03    0.19E-06
   0      8    11.287    12.209    0.21E-03    0.48E-03    0.18E-06
   1      8    11.287     4.655    0.21E-03    0.11E-04    0.26E-06
  PAW_PBE Mn_pv 02Aug2007               :
  PAW_PBE Br 06Sep2000                  :
  PAW_PBE N 08Apr2002                   :
  PAW_PBE C 08Apr2002                   :
  PAW_PBE H 15Jun2001                   :

 POSCAR: (c9 h14 n), br4 mn
  positions in direct lattice
  velocities in cartesian coordinates
 exchange correlation table for  LEXCH =        8
   RHO(1)=    0.500       N(1)  =     2000
   RHO(2)=  100.500       N(2)  =     4000

 ion  position               nearest neighbor table
   1  0.000  0.522  0.750-  21 2.50  23 2.50  13 2.51  15 2.51
   2  1.000  0.478  0.250-  22 2.50  24 2.50  16 2.51  14 2.51
   3  0.500  0.022  0.750-  25 2.50  27 2.50  19 2.51  17 2.51
   4  0.500  0.978  0.250-  28 2.50  26 2.50  20 2.51  18 2.51
   5  0.723  0.596  0.913-  37 2.49  53 2.50  45 2.50  29 2.51
   6  0.277  0.404  0.087-  38 2.49  54 2.50  46 2.50  30 2.51
   7  0.277  0.596  0.587-  39 2.49  55 2.50  47 2.50  31 2.51
   8  0.723  0.404  0.413-  40 2.49  56 2.50  48 2.50  32 2.51
   9  0.223  0.096  0.913-  41 2.49  57 2.50  49 2.50  33 2.51
  10  0.777  0.904  0.087-  42 2.49  58 2.50  50 2.50  34 2.51
  11  0.777  0.096  0.587-  43 2.49  59 2.50  51 2.50  35 2.51
  12  0.223  0.904  0.413-  44 2.49  60 2.50  52 2.50  36 2.51
  13  0.088  0.693  0.725-   1 2.51
  14  0.912  0.307  0.275-   2 2.51
  15  0.912  0.693  0.775-   1 2.51
  16  0.088  0.307  0.225-   2 2.51
  17  0.588  0.193  0.725-   3 2.51
  18  0.412  0.807  0.275-   4 2.51
  19  0.412  0.193  0.775-   3 2.51
  20  0.588  0.807  0.225-   4 2.51
  21  0.073  0.360  0.785-   1 2.50
  22  0.927  0.640  0.215-   2 2.50
  23  0.927  0.360  0.715-   1 2.50
  24  0.073  0.640  0.285-   2 2.50
  25  0.573  0.860  0.785-   3 2.50
  26  0.427  0.140  0.215-   4 2.50
  27  0.427  0.860  0.715-   3 2.50
  28  0.573  0.140  0.285-   4 2.50
  29  0.658  0.385  0.887-   5 2.51
  30  0.342  0.614  0.113-   6 2.51
  31  0.342  0.386  0.613-   7 2.51
  32  0.658  0.614  0.387-   8 2.51
  33  0.158  0.885  0.887-   9 2.51
  34  0.842  0.114  0.113-  10 2.51
  35  0.842  0.886  0.613-  11 2.51
  36  0.158  0.114  0.387-  12 2.51
  37  0.791  0.744  0.877-   5 2.49
  38  0.209  0.256  0.123-   6 2.49
  39  0.209  0.744  0.623-   7 2.49
  40  0.791  0.256  0.377-   8 2.49
  41  0.291  0.244  0.877-   9 2.49
  42  0.709  0.755  0.123-  10 2.49
  43  0.709  0.246  0.623-  11 2.49
  44  0.291  0.756  0.377-  12 2.49
  45  0.634  0.764  0.937-   5 2.50
  46  0.366  0.236  0.063-   6 2.50
  47  0.366  0.764  0.563-   7 2.50
  48  0.634  0.236  0.437-   8 2.50
  49  0.134  0.264  0.937-   9 2.50
  50  0.866  0.736  0.063-  10 2.50
  51  0.867  0.264  0.562-  11 2.50
  52  0.134  0.736  0.437-  12 2.50
  53  0.821  0.497  0.949-   5 2.50
  54  0.179  0.504  0.051-   6 2.50
  55  0.179  0.496  0.551-   7 2.50
  56  0.821  0.504  0.449-   8 2.50
  57  0.321  0.996  0.949-   9 2.50
  58  0.679  0.004  0.051-  10 2.50
  59  0.679  0.997  0.551-  11 2.50
  60  0.321  0.004  0.449-  12 2.50
[...]
 622  0.270  0.046  0.187- 286 1.09
 623  0.270  0.953  0.687- 287 1.09
 624  0.730  0.046  0.313- 288 1.09
 625  0.230  0.454  0.813- 289 1.09
 626  0.770  0.546  0.187- 290 1.09
 627  0.770  0.454  0.687- 291 1.09
 628  0.230  0.546  0.313- 292 1.09
 629  0.647  0.168  0.806- 293 1.09
 630  0.353  0.832  0.194- 294 1.09
 631  0.353  0.168  0.694- 295 1.09
 632  0.647  0.832  0.306- 296 1.09
 633  0.147  0.668  0.806- 297 1.09
 634  0.853  0.332  0.194- 298 1.09
 635  0.853  0.668  0.694- 299 1.09
 636  0.147  0.332  0.306- 300 1.09

IMPORTANT INFORMATION: All symmetrisations will be switched off!
NOSYMM: (Re-)initialisation of all symmetry stuff for point group C_1.

                                     Primitive cell

  volume of cell :    7407.0461

  direct lattice vectors                    reciprocal lattice vectors
    17.127099991  0.000000000  0.000000000     0.058387001  0.000000000  0.002656447
     0.000000000  9.178700447  0.000000000     0.000000000  0.108947885  0.000000000
    -2.143705240  0.000000000 47.117259241     0.000000000  0.000000000  0.021223645

  length of vectors
    17.127099991  9.178700447 47.166000366     0.058447400  0.108947885  0.021223645

  position of ions in fractional coordinates (direct lattice)
     0.000020890  0.521599360  0.749988847
     0.999973713  0.478190432  0.249971580
     0.500236322  0.021575842  0.750064258
     0.499988508  0.978382635  0.250011309
     0.723258168  0.595799937  0.912916214
     0.276592773  0.404139966  0.087056690
     0.276788330  0.595983308  0.587091868
     0.723285033  0.404199035  0.412919413
     0.223237487  0.095671889  0.912911991
     0.776773628  0.904179125  0.087065160
     0.776767469  0.096165031  0.587038225
     0.223223090  0.904052779  0.412914400
     0.088091725  0.693007427  0.725141222
     0.911959746  0.306780463  0.274884349
     0.911907125  0.693170163  0.774843036
     0.088093723  0.306800232  0.225148262
     0.588068580  0.193175634  0.725144772
     0.411896403  0.806859417  0.274846429
     0.411963524  0.192951501  0.774825193
     0.587986590  0.807029459  0.225122472
     0.072840818  0.360155429  0.784828229
     0.927103418  0.639642581  0.215183658
     0.927285863  0.359771475  0.715181326
     0.072788406  0.639771153  0.284777819
     0.573149782  0.860158672  0.784903783
     0.427246733  0.139983286  0.215145515
     0.427326072  0.860042755  0.715227901
     0.572717898  0.140250520  0.284826072
     0.658281548  0.385393492  0.887274032
     0.341667055  0.614289245  0.112726667
     0.341696588  0.385699056  0.612744072
     0.658305813  0.614392594  0.387246091
     0.158287074  0.885405741  0.887231126
     0.841692506  0.114458062  0.112744996
     0.841698090  0.885726973  0.612695929
     0.158253706  0.114288792  0.387262394
     0.791063584  0.744378472  0.877297168
     0.208957275  0.255522402  0.122704501
     0.208946149  0.744475541  0.622701746
     0.791036909  0.255589311  0.377287809
     0.291097766  0.244355595  0.877304451
     0.708982567  0.755416866  0.122693482
     0.709392667  0.245818693  0.622598670
     0.291064346  0.755524518  0.377305993
     0.633590571  0.764203014  0.937468451
     0.366430254  0.235827188  0.062548682
     0.366447409  0.764474931  0.562552096
     0.633635982  0.235759144  0.437483667
     0.133569224  0.264152060  0.937459878
     0.866463483  0.735684933  0.062541106
     0.866572284  0.264142056  0.562406295
     0.133562138  0.735657992  0.437482428
     0.820807984  0.496540050  0.948892235
     0.179092171  0.503593570  0.051115316
     0.179443780  0.496386516  0.551094346
     0.820732309  0.503650544  0.448890042
     0.320798026  0.996386164  0.948887944
     0.679300149  0.003593211  0.051105274
     0.679171984  0.996536043  0.551109390
     0.320578226  0.003610221  0.448903434
[...]
     0.269863960  0.046466094  0.186503561
     0.269857913  0.953462516  0.686508422
     0.730129796  0.046472134  0.313498890
     0.230166918  0.453548023  0.813496287
     0.769880765  0.546422091  0.186502226
     0.769848004  0.453521632  0.686514644
     0.230131522  0.546453865  0.313490681
     0.646876049  0.168050409  0.806122767
     0.353149769  0.831964426  0.193887174
     0.353167955  0.167927779  0.693896328
     0.646847933  0.831981584  0.306116092
     0.146860177  0.668015911  0.806118179
     0.853127102  0.331899337  0.193885366
     0.853149699  0.667992481  0.693881065
     0.146858983  0.331962441  0.306107595

  ion indices of the primitive-cell ions
   primitive index   ion index
                 1           1
                 2           2
                 3           3
                 4           4
                 5           5
                 6           6
                 7           7
                 8           8
                 9           9
                10          10
                11          11
                12          12
                13          13
                14          14
                15          15
                16          16
                17          17
                18          18
                19          19
                20          20
                21          21
                22          22
[...]
   -.680E+02 0.110E+03 -.651E+02   0.686E+02 -.111E+03 0.657E+02   -.532E+00 0.684E+00 -.637E+00   -.650E-03 0.844E-04 0.158E-03
   0.683E+02 -.111E+03 0.653E+02   -.689E+02 0.111E+03 -.659E+02   0.522E+00 -.684E+00 0.636E+00   0.146E-04 -.349E-04 -.583E-03
   0.685E+02 0.110E+03 0.655E+02   -.690E+02 -.111E+03 -.661E+02   0.526E+00 0.682E+00 0.633E+00   0.544E-03 -.242E-03 0.151E-02
   -.683E+02 -.111E+03 -.653E+02   0.689E+02 0.111E+03 0.659E+02   -.523E+00 -.689E+00 -.634E+00   -.802E-04 -.109E-03 -.103E-02
   0.751E+02 0.116E+03 0.567E+02   -.755E+02 -.117E+03 -.572E+02   0.360E+00 0.844E+00 0.497E+00   -.109E-03 0.699E-04 -.486E-05
   -.753E+02 -.116E+03 -.568E+02   0.757E+02 0.117E+03 0.573E+02   -.361E+00 -.837E+00 -.499E+00   0.928E-04 0.688E-04 0.845E-05
   -.751E+02 0.116E+03 -.570E+02   0.755E+02 -.117E+03 0.574E+02   -.356E+00 0.838E+00 -.495E+00   0.214E-03 -.358E-03 0.107E-02
   0.752E+02 -.116E+03 0.568E+02   -.756E+02 0.117E+03 -.573E+02   0.358E+00 -.839E+00 0.498E+00   -.995E-04 0.181E-03 -.965E-03
   0.750E+02 0.116E+03 0.568E+02   -.754E+02 -.117E+03 -.573E+02   0.359E+00 0.842E+00 0.499E+00   0.256E-03 0.133E-03 0.435E-03
   -.750E+02 -.116E+03 -.569E+02   0.753E+02 0.117E+03 0.574E+02   -.358E+00 -.841E+00 -.498E+00   -.125E-03 0.710E-04 -.664E-04
   -.748E+02 0.116E+03 -.570E+02   0.751E+02 -.117E+03 0.574E+02   -.362E+00 0.843E+00 -.495E+00   -.341E-03 0.104E-03 0.627E-03
   0.751E+02 -.116E+03 0.569E+02   -.754E+02 0.117E+03 -.574E+02   0.359E+00 -.838E+00 0.495E+00   -.414E-04 0.737E-04 -.102E-02
   -.831E+02 -.114E+03 0.111E+03   0.836E+02 0.115E+03 -.112E+03   -.460E+00 -.726E+00 0.773E+00   -.231E-03 -.349E-03 0.870E-04
   0.830E+02 0.114E+03 -.111E+03   -.834E+02 -.115E+03 0.112E+03   0.457E+00 0.725E+00 -.774E+00   0.182E-03 -.168E-03 -.647E-04
   0.832E+02 -.114E+03 -.111E+03   -.836E+02 0.115E+03 0.112E+03   0.460E+00 -.725E+00 -.772E+00   -.274E-03 0.143E-03 0.104E-02
   -.830E+02 0.114E+03 0.111E+03   0.835E+02 -.115E+03 -.112E+03   -.459E+00 0.725E+00 0.774E+00   -.832E-04 -.133E-03 -.937E-03
   -.830E+02 -.114E+03 0.111E+03   0.834E+02 0.115E+03 -.112E+03   -.461E+00 -.727E+00 0.773E+00   -.150E-03 -.693E-04 0.242E-03
   0.831E+02 0.114E+03 -.111E+03   -.835E+02 -.115E+03 0.112E+03   0.460E+00 0.729E+00 -.775E+00   -.385E-03 0.202E-05 0.559E-04
   0.834E+02 -.114E+03 -.111E+03   -.838E+02 0.114E+03 0.112E+03   0.455E+00 -.740E+00 -.768E+00   0.341E-03 -.143E-03 0.751E-03
   -.832E+02 0.114E+03 0.111E+03   0.836E+02 -.115E+03 -.112E+03   -.460E+00 0.725E+00 0.773E+00   0.237E-03 -.230E-04 -.114E-02
   0.104E+03 -.999E+02 -.605E+02   -.105E+03 0.101E+03 0.610E+02   0.835E+00 -.616E+00 -.548E+00   -.804E-04 -.247E-03 0.419E-03
   -.104E+03 0.998E+02 0.605E+02   0.105E+03 -.100E+03 -.610E+02   -.838E+00 0.615E+00 0.544E+00   -.589E-04 -.347E-04 0.177E-03
   -.104E+03 -.999E+02 0.604E+02   0.105E+03 0.100E+03 -.610E+02   -.834E+00 -.615E+00 0.548E+00   0.728E-03 0.456E-03 0.104E-03
   0.104E+03 0.999E+02 -.604E+02   -.105E+03 -.101E+03 0.609E+02   0.834E+00 0.615E+00 -.549E+00   -.258E-04 -.169E-03 -.709E-03
   0.104E+03 -.999E+02 -.603E+02   -.105E+03 0.101E+03 0.609E+02   0.836E+00 -.617E+00 -.548E+00   0.383E-03 -.100E-03 0.285E-03
   -.104E+03 0.999E+02 0.604E+02   0.105E+03 -.101E+03 -.610E+02   -.836E+00 0.616E+00 0.546E+00   -.112E-03 0.637E-04 0.165E-03
   -.104E+03 -.997E+02 0.602E+02   0.105E+03 0.100E+03 -.607E+02   -.838E+00 -.614E+00 0.554E+00   -.337E-03 0.807E-04 0.452E-03
   0.104E+03 0.999E+02 -.604E+02   -.105E+03 -.101E+03 0.610E+02   0.835E+00 0.614E+00 -.549E+00   -.257E-03 -.283E-04 -.787E-03
   -.123E+03 0.317E+02 -.722E+02   0.124E+03 -.322E+02 0.729E+02   -.878E+00 0.475E+00 -.686E+00   -.795E-05 -.160E-04 0.362E-03
   0.123E+03 -.318E+02 0.723E+02   -.124E+03 0.323E+02 -.730E+02   0.878E+00 -.477E+00 0.684E+00   0.396E-03 -.199E-03 0.669E-04
   0.124E+03 0.319E+02 0.720E+02   -.124E+03 -.323E+02 -.727E+02   0.875E+00 0.478E+00 0.686E+00   -.794E-03 -.541E-03 -.152E-03
   -.124E+03 -.318E+02 -.722E+02   0.124E+03 0.322E+02 0.729E+02   -.876E+00 -.476E+00 -.686E+00   -.570E-04 -.231E-04 -.451E-03
   -.123E+03 0.316E+02 -.721E+02   0.124E+03 -.320E+02 0.728E+02   -.880E+00 0.475E+00 -.687E+00   -.351E-03 0.127E-03 0.138E-03
   0.124E+03 -.318E+02 0.721E+02   -.125E+03 0.322E+02 -.728E+02   0.876E+00 -.476E+00 0.684E+00   -.366E-05 -.155E-03 0.294E-03
   0.124E+03 0.320E+02 0.718E+02   -.124E+03 -.324E+02 -.725E+02   0.878E+00 0.479E+00 0.688E+00   0.386E-03 -.294E-04 0.533E-03
   -.124E+03 -.319E+02 -.721E+02   0.125E+03 0.323E+02 0.728E+02   -.873E+00 -.477E+00 -.685E+00   0.160E-03 -.194E-04 -.666E-03
[...]
   -.180E+02 0.546E+02 0.129E+02   0.205E+02 -.597E+02 -.141E+02   -.255E+01 0.516E+01 0.118E+01   0.294E-04 -.776E-05 0.203E-03
   0.180E+02 -.545E+02 -.129E+02   -.205E+02 0.597E+02 0.141E+02   0.255E+01 -.516E+01 -.118E+01   -.105E-03 -.285E-04 -.194E-03
   0.179E+02 0.546E+02 -.129E+02   -.205E+02 -.597E+02 0.141E+02   0.255E+01 0.516E+01 -.118E+01   0.876E-04 0.846E-05 0.539E-04
   -.179E+02 -.545E+02 0.129E+02   0.205E+02 0.597E+02 -.141E+02   -.255E+01 -.516E+01 0.118E+01   -.110E-03 -.399E-04 -.167E-04
   -.179E+02 0.546E+02 0.129E+02   0.205E+02 -.597E+02 -.140E+02   -.255E+01 0.516E+01 0.118E+01   -.354E-04 -.127E-04 0.982E-04
   0.180E+02 -.546E+02 -.129E+02   -.205E+02 0.597E+02 0.141E+02   0.255E+01 -.516E+01 -.118E+01   0.574E-04 -.274E-04 -.196E-03
   0.550E+02 0.151E+02 -.704E+01   -.608E+02 -.158E+02 0.735E+01   0.583E+01 0.745E+00 -.303E+00   0.203E-05 0.445E-04 0.125E-04
   -.550E+02 -.151E+02 0.706E+01   0.608E+02 0.159E+02 -.737E+01   -.583E+01 -.743E+00 0.305E+00   0.799E-04 0.484E-04 -.361E-06
   -.550E+02 0.151E+02 0.702E+01   0.608E+02 -.159E+02 -.732E+01   -.583E+01 0.745E+00 0.303E+00   0.689E-04 0.605E-05 0.223E-03
   0.550E+02 -.151E+02 -.705E+01   -.609E+02 0.159E+02 0.736E+01   0.583E+01 -.743E+00 -.306E+00   -.720E-04 0.464E-04 -.211E-03
   0.550E+02 0.151E+02 -.706E+01   -.608E+02 -.159E+02 0.736E+01   0.583E+01 0.745E+00 -.306E+00   0.827E-04 0.294E-04 0.764E-04
   -.550E+02 -.151E+02 0.707E+01   0.608E+02 0.158E+02 -.737E+01   -.583E+01 -.743E+00 0.305E+00   -.104E-03 -.242E-04 -.650E-04
   -.550E+02 0.151E+02 0.704E+01   0.608E+02 -.159E+02 -.734E+01   -.583E+01 0.746E+00 0.303E+00   -.417E-04 0.705E-05 0.934E-04
   0.550E+02 -.151E+02 -.707E+01   -.608E+02 0.159E+02 0.737E+01   0.583E+01 -.744E+00 -.304E+00   0.543E-04 0.284E-05 -.148E-03
   -.165E-01 -.250E-01 -.326E-01   0.121E-12 -.504E-11 0.763E-12   0.123E-01 0.352E-01 0.380E-01   -.359E-03 -.205E-02 0.350E-04

 POSITION                                       TOTAL-FORCE (eV/Angst)
     -1.60740      4.78760     35.33742        -0.004299      0.002449      0.002406
     16.59078      4.38917     11.77798        -0.000763     -0.004629      0.005946
      6.95968      0.19804     35.34097        -0.004409     -0.002991     -0.005208
      8.02740      8.98028     11.77985        -0.002483      0.003951     -0.000587
     10.43029      5.46867     43.01411         0.013412     -0.009947      0.008809
      4.55061      3.70948      4.10187        -0.008350      0.007121     -0.006135
      3.48203      5.47035     27.66216        -0.012995     -0.008056     -0.011453
     11.50260      3.71002     19.45563         0.012139      0.005702      0.007893
      1.86640      0.87814     43.01391         0.015316     -0.005971      0.008641
     13.11724      8.29919      4.10227        -0.014067      0.004100     -0.001914
     12.04534      0.88267     27.65963        -0.009190     -0.009691     -0.011810
      2.93800      8.29803     19.45539         0.010955      0.007183      0.009929
     -0.04573      6.36091     34.16667        -0.032062     -0.006209     -0.013718
     15.02995      2.81585     12.95180         0.032195      0.007883      0.011162
     13.95729      6.36240     36.50848         0.035600     -0.010851      0.009733
      1.02614      2.81603     10.60837        -0.030818      0.004689     -0.014948
      8.51741      1.77310     34.16683        -0.029001     -0.006885     -0.012584
      6.46540      7.40592     12.95001         0.033376      0.008258      0.012240
      5.39474      1.77104     36.50764         0.031858     -0.006067      0.015757
      9.58791      7.40748     10.60715        -0.030190      0.004459     -0.011636
     -0.43489      3.30576     36.97896         0.014389      0.003522     -0.007865
     15.41730      5.87109     10.13886        -0.016147      0.001024      0.003380
     14.34858      3.30223     33.69738        -0.015733      0.007340      0.009491
      0.63617      5.87227     13.41795         0.015722     -0.001204     -0.005048
      8.13379      7.89514     36.98252         0.007478      0.005221     -0.013438
      6.85629      1.28486     10.13707        -0.014962     -0.006252      0.012397
      5.78562      7.89407     33.69958        -0.012978      0.004845      0.010147
      9.19841      1.28732     13.42022         0.014480     -0.009190     -0.011104
      9.37240      3.53741     41.80592        -0.021419      0.009314      0.003861
      5.61011      5.63838      5.31137         0.022067     -0.003075     -0.004112
      4.53873      3.54022     28.87082         0.025336      0.001457     -0.001034
     10.44473      5.63933     18.24597        -0.024094     -0.003479      0.003674
      0.80904      8.12687     41.80390        -0.022087      0.006953      0.004580
     14.17406      1.05058      5.31224         0.023030     -0.005993     -0.003849
     13.10241      8.12982     28.86855         0.019242      0.008133     -0.002722
      1.88025      1.04902     18.24674        -0.023470     -0.002361      0.001188
     11.66796      6.83243     41.33584        -0.015983     -0.013025      0.005833
      3.31579      2.34536      5.78150         0.014071      0.012589     -0.005071
      2.24375      6.83332     29.34000         0.014491     -0.012105     -0.003744
     12.73937      2.34598     17.77677        -0.015662      0.012799      0.006340
      3.10498      2.24287     41.33618        -0.017525     -0.014621      0.007490
     11.87980      6.93375      5.78098         0.017418      0.017556     -0.008892
     10.81517      2.25630     29.33514         0.012151     -0.025260     -0.000523
      4.17626      6.93473     17.77762        -0.015243      0.012620      0.004664
      8.84191      7.01439     44.17094         0.025148     -0.015490      0.004448
      6.14180      2.16459      2.94712        -0.026859      0.015707     -0.006338
      5.07024      7.01689     26.50591        -0.024796     -0.014426     -0.004505
      9.91451      2.16396     20.61303         0.024820      0.014983      0.003417
      0.27802      2.42457     44.17054         0.026618     -0.017030      0.003717
     14.70594      6.75263      2.94677        -0.026013      0.015947     -0.005459
     13.63624      2.42448     26.49904        -0.029039     -0.017195      0.001506
      1.34970      6.75238     20.61297         0.025471      0.014347      0.003807
     12.02392      4.55759     44.70920        -0.009391      0.035237      0.006725
      2.95775      4.62233      2.40841         0.008006     -0.034943     -0.010099
      1.89197      4.55618     25.96606         0.005401      0.036661     -0.007248
     13.09448      4.62286     21.15047        -0.005884     -0.035327      0.008331
      3.46020      9.14553     44.70900        -0.010850      0.035813      0.005617
     11.52489      0.03298      2.40794         0.005419     -0.035107     -0.009263
     10.45083      9.14691     25.96676         0.009946      0.037445     -0.004167
      4.52826      0.03314     21.15110        -0.003511     -0.035803      0.008902
[...]
      4.22218      0.42650      8.78754         0.013339     -0.000319      0.008291
      3.15021      8.75155     32.34640         0.017220     -0.004345      0.006410
     11.83296      0.42655     14.77121        -0.017198      0.006157     -0.006321
      2.19820      4.16298     38.32972        -0.016436     -0.004280     -0.007181
     12.78602      5.01544      8.78747         0.015059      0.002949      0.007152
     11.71358      4.16274     32.34669         0.018054     -0.006378      0.005258
      3.26945      5.01574     14.77082        -0.016128      0.004446     -0.006727
      9.35102      1.54248     37.98230        -0.003283     -0.002091      0.001695
      5.63279      7.63635      9.13543         0.002985      0.003173     -0.000159
      4.56123      1.54136     32.69449         0.001449     -0.002656      0.000153
     10.42241      7.63651     14.42335        -0.006471      0.003319      0.000240
      0.78721      6.13152     37.98208        -0.007770     -0.003438      0.000948
     14.19596      3.04640      9.13535         0.007937      0.002968     -0.000664
     13.12450      6.13130     32.69377         0.005665     -0.002555     -0.001556
      1.85906      3.04698     14.42295        -0.004739      0.002897      0.000168
    total drift:                               -0.004495      0.008193      0.005515

  FREE ENERGIE OF THE ION-ELECTRON SYSTEM (eV)
  free  energy   TOTEN  =     -3615.63534889 eV

  energy  without entropy=    -3615.63534889  energy(sigma->0) =    -3615.63534889

 writing wavefunctions

 total charge

[...]

 magnetization (x)

# of ion       s       p       d       tot
    1        0.032   0.042   4.261   4.335
    2        0.032   0.042   4.260   4.334
    3        0.032   0.042   4.261   4.335
    4        0.032   0.042   4.261   4.335
    5        0.032   0.043   4.253   4.328
    6        0.032   0.043   4.253   4.327
    7        0.032   0.043   4.253   4.327
    8        0.032   0.043   4.253   4.328
    9        0.032   0.043   4.253   4.328
   10        0.032   0.043   4.253   4.328
   11        0.032   0.043   4.253   4.328
   12        0.032   0.043   4.253   4.327
   13        0.003   0.043   0.004   0.050
   14        0.003   0.043   0.004   0.050
   15        0.003   0.043   0.004   0.050
   16        0.003   0.043   0.004   0.050
   17        0.003   0.043   0.004   0.050
   18        0.003   0.043   0.004   0.050
   19        0.003   0.043   0.004   0.050
   20        0.003   0.043   0.004   0.050
   21        0.003   0.041   0.004   0.049
   22        0.003   0.041   0.005   0.049
   23        0.003   0.041   0.004   0.049
   24        0.003   0.041   0.004   0.049
   25        0.003   0.041   0.004   0.049
   26        0.003   0.041   0.004   0.049
   27        0.003   0.041   0.004   0.049
   28        0.003   0.041   0.004   0.049
   29        0.003   0.039   0.005   0.046
   30        0.003   0.039   0.005   0.046
   31        0.003   0.039   0.005   0.046
   32        0.003   0.039   0.005   0.046
   33        0.003   0.039   0.005   0.046
   34        0.003   0.039   0.005   0.046
   35        0.003   0.039   0.005   0.046
   36        0.003   0.039   0.005   0.046
   37        0.003   0.047   0.004   0.055
   38        0.003   0.047   0.004   0.055
   39        0.003   0.047   0.004   0.055
   40        0.003   0.047   0.004   0.055
   41        0.003   0.047   0.004   0.054
   42        0.003   0.047   0.004   0.054
   43        0.003   0.047   0.004   0.054
   44        0.003   0.047   0.004   0.055
   45        0.003   0.043   0.004   0.050
   46        0.003   0.043   0.004   0.050
   47        0.003   0.043   0.004   0.050
   48        0.003   0.043   0.004   0.050
   49        0.003   0.043   0.004   0.050
   50        0.003   0.043   0.004   0.050
   51        0.003   0.043   0.004   0.050
   52        0.003   0.043   0.004   0.050
   53        0.003   0.045   0.004   0.052
   54        0.003   0.045   0.004   0.052
   55        0.003   0.045   0.004   0.052
   56        0.003   0.045   0.004   0.052
   57        0.003   0.045   0.004   0.052
   58        0.003   0.045   0.004   0.052
   59        0.003   0.045   0.004   0.052
   60        0.003   0.045   0.004   0.052
[...]
  622        0.000   0.000   0.000   0.000
  623        0.000   0.000   0.000   0.000
  624        0.000   0.000   0.000   0.000
  625        0.000   0.000   0.000   0.000
  626        0.000   0.000   0.000   0.000
  627        0.000   0.000   0.000   0.000
  628        0.000   0.000   0.000   0.000
  629        0.000   0.000   0.000   0.000
  630        0.000   0.000   0.000   0.000
  631        0.000   0.000   0.000   0.000
  632        0.000   0.000   0.000   0.000
  633        0.000   0.000   0.000   0.000
  634        0.000   0.000   0.000   0.000
  635        0.000   0.000   0.000   0.000
  636        0.000   0.000   0.000   0.000
tot          0.556   2.675  51.281  54.512