 vasp.6.3.2 27Jun22 (build Sep 02 2024 12:59:48) complex

 executed on             LinuxIFC date 2024.09.24  09:28:26

 INCAR:
   SYSTEM = MAPbI3-BSO
   PREC = Accurate
   ISYM = 0
   IALGO = 48
   NCORE = 8
   ISMEAR = 0
   SIGMA = 0.05
   ENCUT = 500
   EDIFF = 1E-06
   LREAL = Auto
   LWAVE = .TRUE.
   LCHARG = .TRUE.
   LORBIT = 11
   NELM = 5000
   NEDOS = 1000
   IBRION = -1
   NSW = 0
   ISPIN = 2
   MAGMOM = 12*5.0 47*0.0 24*0.0 216*0.0 336*0.0

 POTCAR:    PAW_PBE Mn_pv 02Aug2007
 POTCAR:    PAW_PBE Br 06Sep2000
 POTCAR:    PAW_PBE N 08Apr2002
 POTCAR:    PAW_PBE C 08Apr2002
 POTCAR:    PAW_PBE H 15Jun2001
 POTCAR:    PAW_PBE Mn_pv 02Aug2007
   VRHFIN =Mn: 3p4s3d

   TITEL  = PAW_PBE Mn_pv 02Aug2007
   POMASS =   54.938; ZVAL   =   13.000    mass and valenz
   ENMAX  =  269.864; ENMIN  =  202.398 eV

   TITEL  = PAW_PBE Br 06Sep2000
   POMASS =   79.904; ZVAL   =    7.000    mass and valenz
   ENMAX  =  216.285; ENMIN  =  162.214 eV

   TITEL  = PAW_PBE N 08Apr2002
   POMASS =   14.001; ZVAL   =    5.000    mass and valenz
   ENMAX  =  400.000; ENMIN  =  300.000 eV

   TITEL  = PAW_PBE C 08Apr2002
   POMASS =   12.011; ZVAL   =    4.000    mass and valenz
   ENMAX  =  400.000; ENMIN  =  300.000 eV

   TITEL  = PAW_PBE H 15Jun2001
   POMASS =    1.000; ZVAL   =    1.000    mass and valenz
   ENMAX  =  250.000; ENMIN  =  200.000 eV

 Optimization of the real space projectors (new method)

 maximal supplied QI-value         = 16.25
 optimisation between [QCUT,QGAM] = [ 11.38, 22.75] = [ 36.24,144.96] Ry
 Optimized for a Real-space Cutoff    1.47 Angstroem

   l    n(q)    QCUT    max X(q) W(low)/X(q) W(high)/X(q)  e(spline)
   1     10    11.376     3.658    0.62E-04    0.11E-03    0.11E-06
   1     10    11.376     5.612    0.12E-03    0.20E-03    0.19E-06
   2      9    11.376    55.373    0.10E-03    0.85E-04    0.19E-06
   2      9    11.376    50.863    0.11E-03    0.88E-04    0.19E-06
   0     10    11.376    79.536    0.52E-04    0.21E-04    0.79E-07
   0     10    11.376    38.668    0.45E-04    0.19E-04    0.74E-07
 Optimization of the real space projectors (new method)

[...]

   l    n(q)    QCUT    max X(q) W(low)/X(q) W(high)/X(q)  e(spline)
   0      7    11.310   115.676    0.20E-03    0.90E-03    0.20E-06
   0      7    11.310    87.132    0.20E-03    0.89E-03    0.19E-06
   1      6    11.310     4.429    0.16E-03    0.28E-03    0.12E-06
   1      6    11.310     2.733    0.12E-03    0.21E-03    0.99E-07
 Optimization of the real space projectors (new method)

 maximal supplied QI-value         = 34.20
 optimisation between [QCUT,QGAM] = [ 11.29, 22.57] = [ 35.68,142.71] Ry
 Optimized for a Real-space Cutoff    1.20 Angstroem

   l    n(q)    QCUT    max X(q) W(low)/X(q) W(high)/X(q)  e(spline)
   0      8    11.287    19.460    0.22E-03    0.50E-03    0.19E-06
   0      8    11.287    12.209    0.21E-03    0.48E-03    0.18E-06
   1      8    11.287     4.655    0.21E-03    0.11E-04    0.26E-06
  PAW_PBE Mn_pv 02Aug2007               :
  PAW_PBE Br 06Sep2000                  :
  PAW_PBE N 08Apr2002                   :
  PAW_PBE C 08Apr2002                   :
  PAW_PBE H 15Jun2001                   :

 POSCAR: (c9 h14 n), br4 mn
  positions in direct lattice
  velocities in cartesian coordinates
 exchange correlation table for  LEXCH =        8
   RHO(1)=    0.500       N(1)  =     2000
   RHO(2)=  100.500       N(2)  =     4000

 ion  position               nearest neighbor table
   1  0.985  0.484  0.752-  14 2.45  22 2.46  20 2.48
   2  0.000  0.480  0.250-  21 2.50  23 2.51  15 2.51  13 2.51
   3  0.499  0.020  0.750-  24 2.50  16 2.51  26 2.51  18 2.51
   4  0.500  0.980  0.250-  27 2.51  25 2.51  17 2.51  19 2.51
   5  0.723  0.595  0.913-  36 2.50  52 2.50  44 2.50  28 2.51
   6  0.277  0.404  0.087-  37 2.49  53 2.50  45 2.50  29 2.51
   7  0.275  0.595  0.588-  54 2.50  46 2.50  38 2.50  30 2.52
   8  0.723  0.404  0.413-  39 2.49  55 2.50  47 2.50  31 2.51
   9  0.223  0.096  0.913-  40 2.50  56 2.50  48 2.50  32 2.52
  10  0.777  0.904  0.087-  41 2.49  57 2.50  49 2.50  33 2.51
  11  0.777  0.096  0.587-  42 2.49  58 2.50  50 2.50  34 2.52
  12  0.223  0.904  0.413-  43 2.49  59 2.50  51 2.50  35 2.51
  13  0.912  0.308  0.275-   2 2.51
  14  0.930  0.709  0.771-   1 2.45
  15  0.088  0.307  0.225-   2 2.51
  16  0.586  0.194  0.725-   3 2.51
  17  0.412  0.808  0.275-   4 2.51
  18  0.410  0.191  0.774-   3 2.51
  19  0.588  0.807  0.225-   4 2.51
  20  0.080  0.350  0.783-   1 2.48
  21  0.927  0.642  0.215-   2 2.50
  22  0.926  0.350  0.711-   1 2.46
  23  0.073  0.641  0.285-   2 2.51
  24  0.574  0.860  0.784-   3 2.50
  25  0.427  0.142  0.215-   4 2.51
  26  0.424  0.857  0.715-   3 2.51
  27  0.574  0.142  0.285-   4 2.51
  28  0.658  0.385  0.887-   5 2.51
  29  0.342  0.614  0.113-   6 2.51
  30  0.342  0.386  0.613-   7 2.52
  31  0.659  0.614  0.387-   8 2.51
  32  0.158  0.885  0.887-   9 2.52
  33  0.842  0.114  0.113-  10 2.51
  34  0.843  0.886  0.613-  11 2.52
  35  0.158  0.114  0.387-  12 2.51
  36  0.791  0.744  0.877-   5 2.50
  37  0.209  0.256  0.123-   6 2.49
  38  0.210  0.746  0.624-   7 2.50
  39  0.791  0.256  0.377-   8 2.49
  40  0.291  0.244  0.877-   9 2.50
  41  0.709  0.755  0.123-  10 2.49
  42  0.709  0.244  0.623-  11 2.49
  43  0.291  0.756  0.377-  12 2.49
  44  0.634  0.764  0.937-   5 2.50
  45  0.366  0.235  0.063-   6 2.50
  46  0.365  0.763  0.563-   7 2.50
  47  0.634  0.235  0.437-   8 2.50
  48  0.133  0.265  0.937-   9 2.50
  49  0.866  0.735  0.063-  10 2.50
  50  0.867  0.265  0.563-  11 2.50
  51  0.134  0.735  0.437-  12 2.50
  52  0.821  0.496  0.949-   5 2.50
  53  0.179  0.503  0.051-   6 2.50
  54  0.177  0.497  0.552-   7 2.50
  55  0.821  0.503  0.449-   8 2.50
  56  0.321  0.997  0.949-   9 2.50
  57  0.680  0.003  0.051-  10 2.50
  58  0.679  0.997  0.551-  11 2.50
  59  0.321  0.003  0.449-  12 2.50
  60  0.831  0.026  0.972- 100 1.51  84 1.51 108 1.51  92 1.51
[...]
 621  0.270  0.047  0.186- 285 1.09
 622  0.267  0.954  0.686- 286 1.09
 623  0.730  0.047  0.314- 287 1.09
 624  0.232  0.452  0.814- 288 1.09
 625  0.770  0.547  0.186- 289 1.09
 626  0.769  0.453  0.687- 290 1.09
 627  0.230  0.547  0.314- 291 1.09
 628  0.647  0.168  0.805- 292 1.09
 629  0.353  0.832  0.194- 293 1.09
 630  0.350  0.168  0.694- 294 1.09
 631  0.647  0.832  0.306- 295 1.09
 632  0.148  0.665  0.806- 296 1.09
 633  0.853  0.332  0.194- 297 1.09
 634  0.852  0.667  0.694- 298 1.09
 635  0.147  0.332  0.306- 299 1.09

IMPORTANT INFORMATION: All symmetrisations will be switched off!
NOSYMM: (Re-)initialisation of all symmetry stuff for point group C_1.

                                     Primitive cell

  volume of cell :    7407.0461

  direct lattice vectors                    reciprocal lattice vectors
    17.127099991  0.000000000  0.000000000     0.058387001  0.000000000  0.002656447
     0.000000000  9.178700447  0.000000000     0.000000000  0.108947885  0.000000000
    -2.143705240  0.000000000 47.117259241     0.000000000  0.000000000  0.021223645

  length of vectors
    17.127099991  9.178700447 47.166000366     0.058447400  0.108947885  0.021223645

  position of ions in fractional coordinates (direct lattice)
     0.984988121  0.484287647  0.751758661
     0.000095919  0.479508860  0.249988100
     0.498781961  0.020188002  0.749626759
     0.500133104  0.979570349  0.249985811
     0.723321448  0.594921612  0.912755109
     0.276812655  0.403838527  0.087066304
     0.275448346  0.595047002  0.587604056
     0.723435200  0.403888751  0.413022093
     0.222895808  0.095679539  0.912815955
     0.776900529  0.903689208  0.087093055
     0.777078995  0.096005508  0.587120759
     0.223363676  0.903870955  0.412993003
     0.912147657  0.307617211  0.274833192
     0.930076747  0.708780008  0.770698628
     0.087922536  0.307333170  0.225166298
     0.586315028  0.193526341  0.724920496
     0.412152357  0.807692134  0.274800253
     0.409654009  0.190781969  0.774375797
     0.587933311  0.807332914  0.225167098
     0.079774870  0.349625880  0.783078313
     0.927054967  0.642109583  0.215361590
     0.926280355  0.349837647  0.711094005
     0.073495257  0.641412964  0.284688714
     0.573934988  0.859943232  0.784059579
     0.426995215  0.142119067  0.215333339
     0.424100060  0.856617318  0.715429975
     0.573668468  0.141580165  0.284613131
     0.658094796  0.385339719  0.886798922
     0.341622298  0.614420942  0.112709666
     0.341700534  0.385891921  0.613479886
     0.658501812  0.614332024  0.387347417
     0.158133379  0.885213484  0.886898784
     0.841608591  0.114361205  0.112702995
     0.842732467  0.885921468  0.612809939
     0.158496779  0.114341631  0.387349909
     0.791226374  0.744263348  0.877132874
     0.208955010  0.255568767  0.122722937
     0.209697599  0.746080369  0.623725019
     0.791106154  0.255681722  0.377299289
     0.291173291  0.244396943  0.877229086
     0.708930981  0.755372461  0.122720500
     0.708958090  0.244413589  0.622720552
     0.291162901  0.755682431  0.377304371
     0.633875691  0.764054277  0.937280753
     0.366471452  0.234809985  0.062581260
     0.364967772  0.762839069  0.562788048
     0.633539496  0.234826971  0.437426156
     0.133457780  0.265383346  0.937262000
     0.866476257  0.734756474  0.062560514
     0.866582329  0.265471543  0.562722262
     0.133552887  0.734839560  0.437414647
     0.820767082  0.496351567  0.948807256
     0.179337147  0.503463099  0.051103265
     0.177338941  0.497380916  0.551696534
     0.820691173  0.502655876  0.449188604
     0.320520019  0.996600551  0.948822214
     0.679512733  0.003024717  0.051049880
     0.679492435  0.996559936  0.551147725
     0.320628702  0.003122851  0.449129939
     0.830852103  0.025800714  0.971948629
[...]
     0.270405146  0.046758780  0.186461733
     0.266862219  0.953540651  0.686124224
     0.729810859  0.046836530  0.313528150
     0.232467358  0.451771606  0.813856334
     0.770401270  0.546750034  0.186467087
     0.769263515  0.452878888  0.686773252
     0.229773919  0.546808410  0.313525454
     0.647055290  0.168427027  0.805415451
     0.353422789  0.832020109  0.193986957
     0.350223330  0.167623202  0.693782835
     0.646743438  0.832038693  0.306054453
     0.148236974  0.665338521  0.806489076
     0.853429009  0.331999462  0.193980295
     0.852309584  0.667379961  0.694269656
     0.146715360  0.332016428  0.306045771

  ion indices of the primitive-cell ions
   primitive index   ion index
                 1           1
                 2           2
                 3           3
                 4           4
                 5           5
                 6           6
                 7           7
                 8           8
                 9           9
                10          10
                11          11
                12          12
                13          13
                14          14
                15          15
                16          16
                17          17
                18          18
                19          19
                20          20
                21          21
[...]
   0.678E+02 -.110E+03 0.658E+02   -.683E+02 0.111E+03 -.664E+02   0.535E+00 -.700E+00 0.629E+00   0.213E-03 0.419E-04 -.475E-03
   0.837E+02 0.111E+03 0.643E+02   -.842E+02 -.112E+03 -.649E+02   0.515E+00 0.690E+00 0.611E+00   0.176E-03 0.493E-03 -.105E-02
   -.674E+02 -.110E+03 -.689E+02   0.679E+02 0.110E+03 0.695E+02   -.547E+00 -.693E+00 -.624E+00   0.127E-04 -.184E-03 0.705E-03
   0.734E+02 0.115E+03 0.712E+02   -.738E+02 -.116E+03 -.717E+02   0.372E+00 0.838E+00 0.496E+00   -.150E-02 -.296E-02 -.336E-02
   -.743E+02 -.116E+03 -.500E+02   0.747E+02 0.117E+03 0.505E+02   -.359E+00 -.840E+00 -.497E+00   0.100E-02 0.245E-02 0.175E-02
   -.700E+02 0.113E+03 -.737E+02   0.704E+02 -.114E+03 0.741E+02   -.395E+00 0.830E+00 -.476E+00   -.119E-03 0.621E-03 -.208E-03
   0.744E+02 -.116E+03 0.480E+02   -.747E+02 0.117E+03 -.485E+02   0.364E+00 -.837E+00 0.502E+00   0.112E-03 -.690E-03 0.116E-02
   0.752E+02 0.116E+03 0.755E+02   -.756E+02 -.117E+03 -.760E+02   0.364E+00 0.843E+00 0.491E+00   -.137E-02 -.216E-02 -.305E-02
   -.743E+02 -.116E+03 -.501E+02   0.747E+02 0.117E+03 0.506E+02   -.358E+00 -.841E+00 -.495E+00   -.891E-03 -.209E-02 -.297E-03
   -.821E+02 0.116E+03 -.755E+02   0.825E+02 -.117E+03 0.760E+02   -.364E+00 0.833E+00 -.483E+00   -.464E-03 0.587E-03 -.744E-03
   0.741E+02 -.116E+03 0.479E+02   -.745E+02 0.117E+03 -.484E+02   0.362E+00 -.837E+00 0.499E+00   -.162E-04 0.608E-03 0.802E-03
   -.868E+02 -.114E+03 0.128E+03   0.872E+02 0.115E+03 -.129E+03   -.451E+00 -.737E+00 0.748E+00   0.220E-02 0.215E-02 -.458E-02
   0.835E+02 0.114E+03 -.105E+03   -.840E+02 -.115E+03 0.105E+03   0.458E+00 0.724E+00 -.773E+00   -.124E-02 -.183E-02 0.189E-02
   0.882E+02 -.113E+03 -.140E+03   -.886E+02 0.114E+03 0.140E+03   0.413E+00 -.758E+00 -.722E+00   -.298E-03 -.560E-03 -.281E-03
   -.833E+02 0.114E+03 0.103E+03   0.838E+02 -.114E+03 -.103E+03   -.454E+00 0.725E+00 0.778E+00   -.348E-03 0.540E-03 0.141E-02
   -.802E+02 -.114E+03 0.128E+03   0.806E+02 0.115E+03 -.128E+03   -.459E+00 -.727E+00 0.755E+00   0.116E-02 0.161E-02 -.383E-02
   0.836E+02 0.114E+03 -.105E+03   -.841E+02 -.114E+03 0.105E+03   0.461E+00 0.726E+00 -.772E+00   0.913E-03 0.157E-02 -.118E-02
   0.799E+02 -.115E+03 -.123E+03   -.803E+02 0.115E+03 0.124E+03   0.454E+00 -.727E+00 -.766E+00   0.852E-03 -.365E-03 -.133E-02
   -.835E+02 0.114E+03 0.102E+03   0.840E+02 -.114E+03 -.103E+03   -.455E+00 0.724E+00 0.778E+00   0.250E-03 -.475E-03 0.638E-03
   0.103E+03 -.100E+03 -.467E+02   -.104E+03 0.101E+03 0.473E+02   0.832E+00 -.616E+00 -.554E+00   -.253E-02 0.241E-02 0.201E-02
   -.104E+03 0.995E+02 0.702E+02   0.105E+03 -.100E+03 -.707E+02   -.838E+00 0.622E+00 0.541E+00   0.139E-02 -.211E-02 0.688E-03
   -.102E+03 -.990E+02 0.438E+02   0.103E+03 0.996E+02 -.444E+02   -.829E+00 -.598E+00 0.563E+00   -.580E-04 -.465E-03 0.881E-03
   0.104E+03 0.994E+02 -.715E+02   -.105E+03 -.100E+03 0.721E+02   0.837E+00 0.621E+00 -.537E+00   0.373E-03 0.587E-03 0.792E-03
   0.104E+03 -.100E+03 -.442E+02   -.105E+03 0.101E+03 0.447E+02   0.835E+00 -.628E+00 -.553E+00   -.168E-02 0.185E-02 0.174E-02
   -.104E+03 0.995E+02 0.702E+02   0.105E+03 -.100E+03 -.707E+02   -.835E+00 0.620E+00 0.545E+00   -.114E-02 0.170E-02 0.322E-02
   -.106E+03 -.997E+02 0.433E+02   0.107E+03 0.100E+03 -.439E+02   -.828E+00 -.620E+00 0.547E+00   -.959E-03 -.530E-03 0.149E-02
   0.104E+03 0.996E+02 -.722E+02   -.104E+03 -.100E+03 0.728E+02   0.840E+00 0.618E+00 -.537E+00   -.252E-03 -.481E-03 0.104E-02
   -.125E+03 0.311E+02 -.573E+02   0.126E+03 -.316E+02 0.580E+02   -.879E+00 0.465E+00 -.699E+00   0.266E-02 -.148E-02 0.296E-02
   0.124E+03 -.319E+02 0.818E+02   -.125E+03 0.323E+02 -.825E+02   0.877E+00 -.478E+00 0.680E+00   -.160E-02 0.101E-02 0.335E-04
   0.122E+03 0.314E+02 0.548E+02   -.123E+03 -.319E+02 -.555E+02   0.895E+00 0.462E+00 0.716E+00   0.332E-05 0.309E-03 0.119E-02
   -.124E+03 -.319E+02 -.830E+02   0.125E+03 0.323E+02 0.837E+02   -.877E+00 -.469E+00 -.693E+00   -.441E-03 -.245E-03 0.809E-03
   -.123E+03 0.316E+02 -.565E+02   0.124E+03 -.321E+02 0.572E+02   -.884E+00 0.471E+00 -.696E+00   0.165E-02 -.117E-02 0.285E-02
   0.124E+03 -.320E+02 0.815E+02   -.125E+03 0.324E+02 -.822E+02   0.874E+00 -.473E+00 0.682E+00   0.119E-02 -.952E-03 0.385E-02
   0.123E+03 0.319E+02 0.571E+02   -.124E+03 -.323E+02 -.578E+02   0.880E+00 0.473E+00 0.695E+00   0.949E-03 0.373E-03 0.187E-02
   -.124E+03 -.317E+02 -.835E+02   0.124E+03 0.322E+02 0.842E+02   -.876E+00 -.474E+00 -.686E+00   0.263E-03 0.203E-03 0.108E-02
   0.183E+02 0.220E+02 0.558E+02   -.183E+02 -.222E+02 -.558E+02   0.331E-01 0.242E+00 -.810E-01   0.351E-03 0.165E-03 0.104E-02
[...]
   -.144E+02 0.562E+02 0.113E+02   0.170E+02 -.613E+02 -.126E+02   -.257E+01 0.513E+01 0.132E+01   -.813E-04 -.273E-04 -.105E-03
   0.179E+02 -.544E+02 -.137E+02   -.205E+02 0.596E+02 0.149E+02   0.256E+01 -.516E+01 -.118E+01   -.716E-04 -.328E-04 0.225E-04
   0.195E+02 0.533E+02 -.936E+01   -.221E+02 -.584E+02 0.106E+02   0.251E+01 0.518E+01 -.122E+01   -.951E-04 0.449E-04 -.496E-03
   -.180E+02 -.544E+02 0.132E+02   0.206E+02 0.596E+02 -.144E+02   -.257E+01 -.515E+01 0.117E+01   -.435E-04 -.209E-05 -.139E-03
   -.195E+02 0.534E+02 0.116E+02   0.221E+02 -.586E+02 -.127E+02   -.258E+01 0.516E+01 0.117E+01   0.997E-04 -.202E-04 -.298E-03
   0.179E+02 -.544E+02 -.137E+02   -.205E+02 0.596E+02 0.149E+02   0.256E+01 -.516E+01 -.118E+01   0.794E-04 0.996E-05 0.254E-03
   0.551E+02 0.150E+02 -.468E+01   -.609E+02 -.158E+02 0.490E+01   0.583E+01 0.730E+00 -.224E+00   -.615E-05 -.234E-04 -.421E-03
   -.551E+02 -.150E+02 0.717E+01   0.609E+02 0.157E+02 -.746E+01   -.583E+01 -.728E+00 0.289E+00   0.247E-04 -.540E-04 -.277E-03
   -.529E+02 0.155E+02 0.712E+01   0.587E+02 -.162E+02 -.751E+01   -.583E+01 0.727E+00 0.391E+00   -.120E-04 -.209E-04 -.139E-03
   0.551E+02 -.149E+02 -.768E+01   -.609E+02 0.157E+02 0.798E+01   0.583E+01 -.730E+00 -.299E+00   -.498E-04 0.365E-04 0.480E-04
   0.569E+02 0.156E+02 0.110E+01   -.628E+02 -.164E+02 -.752E+00   0.582E+01 0.773E+00 -.356E+00   -.146E-03 -.462E-04 -.581E-03
   -.551E+02 -.150E+02 0.720E+01   0.609E+02 0.157E+02 -.749E+01   -.583E+01 -.728E+00 0.291E+00   -.542E-04 -.160E-04 -.142E-03
   -.606E+02 0.146E+02 0.381E+01   0.665E+02 -.153E+02 -.408E+01   -.582E+01 0.745E+00 0.267E+00   0.192E-03 -.295E-04 -.167E-03
   0.551E+02 -.149E+02 -.766E+01   -.609E+02 0.157E+02 0.795E+01   0.583E+01 -.730E+00 -.296E+00   0.558E-04 -.181E-04 0.252E-03
   0.165E+01 -.142E+00 0.706E+00   0.341E-12 0.496E-12 -.102E-11   -.169E+01 0.140E+00 -.754E+00   0.347E-02 0.262E-02 0.135E-02

 POSITION                                       TOTAL-FORCE (eV/Angst)
     15.25844      4.44513     35.42081        -0.006310     -0.006135      0.026132
     -0.53426      4.40127     11.77875         0.002055      0.002918      0.004073
      6.93571      0.18530     35.32036         0.004287      0.004469      0.000494
      8.02993      8.99118     11.77865         0.000013      0.006051     -0.002550
     10.43172      5.46061     43.00652         0.011935      0.002829      0.007308
      4.55435      3.70671      4.10233        -0.010007      0.007257     -0.006001
      3.45798      5.46176     27.68629         0.001800      0.002292     -0.009241
     11.50495      3.70717     19.46047         0.006706      0.005375      0.006295
      1.86075      0.87821     43.00939         0.015563     -0.002869      0.010239
     13.11935      8.29469      4.10359        -0.014012      0.006027     -0.009974
     12.05050      0.88121     27.66352        -0.013736     -0.005631     -0.011923
      2.94024      8.29636     19.45910         0.011593      0.006761      0.007933
     15.03328      2.82353     12.94939         0.036036      0.014418      0.011756
     14.27737      6.50568     36.31321         0.025441     -0.011452      0.019428
      1.02317      2.82092     10.60922        -0.034642      0.015403     -0.012962
      8.48786      1.77632     34.15627        -0.043244     -0.014698     -0.005679
      6.46988      7.41356     12.94783         0.035258      0.013798      0.013665
      5.35615      1.75113     36.48647         0.046777      0.002922      0.012338
      9.58690      7.41027     10.60926        -0.034299      0.015383     -0.013969
     -0.31238      3.20911     36.89650         0.009874      0.016072      0.008856
     15.41609      5.89373     10.14725        -0.005170     -0.020080      0.008834
     14.34012      3.21105     33.50480        -0.009320      0.006471      0.019469
      0.64847      5.88734     13.41375        -0.003041     -0.018371     -0.012757
      8.14905      7.89316     36.94274        -0.001614      0.001215     -0.000211
      6.85158      1.30447     10.14592        -0.001727     -0.022562      0.012978
      5.72993      7.86263     33.70910        -0.008788      0.020947      0.000004
      9.21515      1.29952     13.41019        -0.005290     -0.017358     -0.010023
      9.37022      3.53692     41.78353        -0.007958      0.007999      0.004419
      5.60938      5.63959      5.31057         0.017687     -0.004113     -0.003391
      4.53722      3.54199     28.90549         0.008613      0.007819      0.002072
     10.44787      5.63877     18.25075        -0.014455     -0.003425      0.006593
      0.80712      8.12511     41.78824        -0.008437      0.013227      0.006723
     14.17271      1.04969      5.31026         0.019001     -0.001689     -0.001237
     13.11988      8.13161     28.87392         0.012023      0.005989      0.000140
      1.88423      1.04951     18.25087        -0.016530     -0.001056      0.002801
     11.67110      6.83137     41.32810        -0.012036     -0.017450      0.000291
      3.31571      2.34579      5.78237         0.013005      0.012335     -0.003377
      2.25443      6.84805     29.38821         0.004894     -0.023151      0.005271
     12.74054      2.34683     17.77731        -0.010448      0.013689      0.006145
      3.10643      2.24325     41.33263        -0.013902     -0.015629      0.000263
     11.87886      6.93334      5.78225         0.014717      0.015064     -0.003458
     10.80747      2.24340     29.34089         0.014876     -0.011784     -0.002154
      4.17795      6.93618     17.77755        -0.010451      0.012974      0.006196
      8.84720      7.01303     44.16210         0.025613     -0.013654      0.001437
      6.14244      2.15525      2.94866        -0.029689      0.020807     -0.006959
      5.04439      7.00187     26.51703        -0.017562     -0.002666      0.000653
      9.91298      2.15541     20.61032         0.029611      0.021254      0.007511
      0.27653      2.43587     44.16122         0.030929     -0.023755     -0.000270
     14.70611      6.74411      2.94768        -0.026708      0.019122     -0.005238
     13.63573      2.43668     26.51393        -0.022744     -0.015416     -0.008128
      1.34969      6.74487     20.60978         0.030469      0.018532      0.008438
     12.02340      4.55586     44.70520        -0.006791      0.028797      0.002595
      2.96197      4.62114      2.40785         0.006881     -0.035671     -0.010712
      1.85463      4.56531     25.99443         0.026652      0.022196      0.000857
     13.09313      4.61373     21.16454        -0.008867     -0.031069      0.001600
      3.45558      9.14750     44.70590        -0.014089      0.033975     -0.001413
     11.52865      0.02776      2.40533         0.005215     -0.033009     -0.008486
     10.45624      9.14713     25.96857         0.011372      0.033918     -0.001081
      4.52864      0.02866     21.16177        -0.008344     -0.034674      0.004360
     12.14652      0.23682     45.79556         0.004199     -0.002276     -0.004570
[...]
      4.23154      0.42918      8.78557         0.010643      0.002056      0.005380
      3.09973      8.75226     32.32829         0.014428     -0.010973      0.006463
     11.82743      0.42990     14.77259        -0.016438      0.001155     -0.006722
      2.23682      4.14668     38.34668        -0.016542     -0.002242     -0.006516
     12.79501      5.01845      8.78582         0.010173      0.000609      0.005622
     11.70301      4.15684     32.35887         0.013125     -0.008208      0.003881
      3.26325      5.01899     14.77246        -0.015746      0.001688     -0.006440
      9.35561      1.54594     37.94897         0.004525     -0.004384      0.001133
      5.63726      7.63686      9.14013         0.000700      0.005835     -0.001665
      4.51104      1.53856     32.68915        -0.007961     -0.006394     -0.001199
     10.42075      7.63703     14.42045        -0.007645      0.005022      0.000141
      0.80999      6.10694     37.99955        -0.005264     -0.005333     -0.003952
     14.20093      3.04732      9.13982        -0.003498      0.005032     -0.000896
     13.10928      6.12568     32.71208         0.003669     -0.003813     -0.003178
      1.85674      3.04748     14.42004        -0.003745      0.004704      0.000905
    total drift:                               -0.039332      0.000590     -0.046305

  FREE ENERGIE OF THE ION-ELECTRON SYSTEM (eV)
  free  energy   TOTEN  =     -3610.72780093 eV

  energy  without entropy=    -3610.70935129  energy(sigma->0) =    -3610.71857611

 writing wavefunctions

 total charge

[...]

 magnetization (x)

# of ion       s       p       d       tot
    1       -0.017  -0.028  -3.879  -3.924
    2        0.032   0.042   4.262   4.336
    3        0.032   0.041   4.250   4.323
    4        0.032   0.042   4.262   4.336
    5        0.032   0.042   4.245   4.319
    6        0.032   0.043   4.250   4.325
    7        0.032   0.042   4.236   4.310
    8        0.032   0.043   4.250   4.324
    9        0.032   0.042   4.246   4.320
   10        0.032   0.043   4.250   4.325
   11        0.032   0.042   4.244   4.318
   12        0.032   0.043   4.249   4.323
   13        0.003   0.043   0.004   0.050
   14        0.000  -0.017  -0.006  -0.023
   15        0.003   0.043   0.004   0.050
   16        0.003   0.042   0.004   0.049
   17        0.003   0.043   0.004   0.050
   18        0.003   0.041   0.004   0.048
   19        0.003   0.043   0.004   0.050
   20       -0.000  -0.019  -0.006  -0.026
   21        0.003   0.041   0.004   0.049
   22        0.000  -0.016  -0.007  -0.022
   23        0.003   0.041   0.004   0.049
   24        0.003   0.040   0.004   0.048
   25        0.003   0.041   0.004   0.049
   26        0.003   0.039   0.004   0.046
   27        0.003   0.041   0.004   0.049
   28        0.003   0.037   0.005   0.045
   29        0.003   0.039   0.005   0.046
   30        0.003   0.037   0.005   0.044
   31        0.003   0.038   0.005   0.046
   32        0.003   0.037   0.005   0.045
   33        0.003   0.039   0.005   0.046
   34        0.003   0.037   0.005   0.045
   35        0.003   0.039   0.005   0.046
   36        0.003   0.045   0.004   0.053
   37        0.003   0.047   0.004   0.054
   38        0.003   0.043   0.004   0.051
   39        0.003   0.046   0.004   0.054
   40        0.003   0.046   0.004   0.053
   41        0.003   0.047   0.004   0.054
   42        0.003   0.046   0.004   0.053
   43        0.003   0.046   0.004   0.054
   44        0.003   0.042   0.004   0.050
   45        0.003   0.042   0.004   0.050
   46        0.003   0.042   0.004   0.049
   47        0.003   0.042   0.004   0.050
   48        0.003   0.042   0.004   0.049
   49        0.003   0.042   0.004   0.050
   50        0.003   0.042   0.004   0.049
   51        0.003   0.042   0.004   0.050
   52        0.003   0.044   0.004   0.051
   53        0.003   0.044   0.004   0.052
   54        0.003   0.043   0.004   0.050
   55        0.003   0.044   0.004   0.051
   56        0.003   0.044   0.004   0.051
   57        0.003   0.044   0.004   0.052
   58        0.003   0.044   0.004   0.051
   59        0.003   0.044   0.004   0.051
   60        0.000   0.000   0.000   0.000
[...]
  621        0.000   0.000   0.000   0.000
  622        0.000   0.000   0.000   0.000
  623        0.000   0.000   0.000   0.000
  624       -0.000  -0.000   0.000  -0.000
  625        0.000   0.000   0.000   0.000
  626        0.000  -0.000   0.000  -0.000
  627        0.000   0.000   0.000   0.000
  628        0.000   0.000   0.000   0.000
  629        0.000   0.000   0.000   0.000
  630        0.000   0.000   0.000   0.000
  631        0.000   0.000   0.000   0.000
  632       -0.000   0.000   0.000   0.000
  633        0.000   0.000   0.000   0.000
  634       -0.000   0.000   0.000   0.000
  635        0.000   0.000   0.000   0.000
tot          0.499   2.355  43.040  45.893